*SPEF "ieee 1481-1999"
*DESIGN "counter_top"
*DATE "09:46:29 Wednesday August 26, 2026"
*VENDOR "The OpenROAD Project"
*PROGRAM "OpenROAD"
*VERSION "26Q1-1024-gdcf36133a"
*DESIGN_FLOW "NAME_SCOPE LOCAL" "PIN_CAP NONE"
*DIVIDER /
*DELIMITER :
*BUS_DELIMITER []
*T_UNIT 1 NS
*C_UNIT 1 PF
*R_UNIT 1 OHM
*L_UNIT 1 HENRY

*NAME_MAP
*3 clock_i
*4 counter_value_o[0]
*5 counter_value_o[1]
*6 counter_value_o[2]
*7 counter_value_o[3]
*8 counter_value_o[4]
*9 counter_value_o[5]
*10 counter_value_o[6]
*11 counter_value_o[7]
*12 enable_i
*13 reset_n_i
*14 _00_
*15 _01_
*16 _02_
*17 _03_
*18 _04_
*19 _05_
*20 _06_
*21 _07_
*22 _08_
*23 _09_
*24 _10_
*25 _11_
*26 _12_
*27 _13_
*28 _14_
*29 _15_
*30 _16_
*31 _17_
*32 _18_
*33 _19_
*34 _20_
*35 _21_
*36 _22_
*37 _23_
*38 _24_
*39 _25_
*40 _26_
*41 _27_
*42 _28_
*43 clknet_0_clock_i
*44 clknet_1_0__leaf_clock_i
*45 clknet_1_1__leaf_clock_i
*46 net
*47 net1
*48 net10
*49 net11
*50 net12
*51 net13
*52 net14
*53 net15
*54 net16
*55 net17
*56 net18
*57 net19
*58 net2
*59 net20
*60 net21
*61 net22
*62 net23
*63 net24
*64 net25
*65 net26
*66 net27
*67 net28
*68 net29
*69 net3
*70 net30
*71 net31
*72 net32
*73 net33
*74 net34
*75 net35
*76 net36
*77 net4
*78 net5
*79 net6
*80 net7
*81 net8
*82 net9
*83 FILLER_0_0
*84 FILLER_0_105
*85 FILLER_0_112
*86 FILLER_0_119
*87 FILLER_0_126
*88 FILLER_0_133
*89 FILLER_0_14
*90 FILLER_0_140
*91 FILLER_0_147
*92 FILLER_0_154
*93 FILLER_0_161
*94 FILLER_0_168
*95 FILLER_0_175
*96 FILLER_0_182
*97 FILLER_0_189
*98 FILLER_0_196
*99 FILLER_0_203
*100 FILLER_0_21
*101 FILLER_0_210
*102 FILLER_0_217
*103 FILLER_0_224
*104 FILLER_0_231
*105 FILLER_0_238
*106 FILLER_0_245
*107 FILLER_0_252
*108 FILLER_0_259
*109 FILLER_0_266
*110 FILLER_0_273
*111 FILLER_0_28
*112 FILLER_0_280
*113 FILLER_0_287
*114 FILLER_0_294
*115 FILLER_0_301
*116 FILLER_0_308
*117 FILLER_0_315
*118 FILLER_0_322
*119 FILLER_0_329
*120 FILLER_0_336
*121 FILLER_0_343
*122 FILLER_0_35
*123 FILLER_0_350
*124 FILLER_0_357
*125 FILLER_0_364
*126 FILLER_0_371
*127 FILLER_0_378
*128 FILLER_0_385
*129 FILLER_0_42
*130 FILLER_0_49
*131 FILLER_0_56
*132 FILLER_0_63
*133 FILLER_0_7
*134 FILLER_0_70
*135 FILLER_0_77
*136 FILLER_0_84
*137 FILLER_0_91
*138 FILLER_0_98
*139 FILLER_10_0
*140 FILLER_10_105
*141 FILLER_10_112
*142 FILLER_10_119
*143 FILLER_10_126
*144 FILLER_10_133
*145 FILLER_10_14
*146 FILLER_10_140
*147 FILLER_10_147
*148 FILLER_10_154
*149 FILLER_10_161
*150 FILLER_10_168
*151 FILLER_10_175
*152 FILLER_10_182
*153 FILLER_10_189
*154 FILLER_10_196
*155 FILLER_10_203
*156 FILLER_10_21
*157 FILLER_10_210
*158 FILLER_10_217
*159 FILLER_10_224
*160 FILLER_10_231
*161 FILLER_10_238
*162 FILLER_10_245
*163 FILLER_10_252
*164 FILLER_10_259
*165 FILLER_10_266
*166 FILLER_10_273
*167 FILLER_10_28
*168 FILLER_10_280
*169 FILLER_10_287
*170 FILLER_10_294
*171 FILLER_10_301
*172 FILLER_10_308
*173 FILLER_10_315
*174 FILLER_10_322
*175 FILLER_10_329
*176 FILLER_10_336
*177 FILLER_10_343
*178 FILLER_10_35
*179 FILLER_10_350
*180 FILLER_10_357
*181 FILLER_10_364
*182 FILLER_10_371
*183 FILLER_10_378
*184 FILLER_10_385
*185 FILLER_10_42
*186 FILLER_10_49
*187 FILLER_10_56
*188 FILLER_10_63
*189 FILLER_10_7
*190 FILLER_10_70
*191 FILLER_10_77
*192 FILLER_10_84
*193 FILLER_10_91
*194 FILLER_10_98
*195 FILLER_11_0
*196 FILLER_11_105
*197 FILLER_11_112
*198 FILLER_11_119
*199 FILLER_11_126
*200 FILLER_11_133
*201 FILLER_11_14
*202 FILLER_11_140
*203 FILLER_11_147
*204 FILLER_11_154
*205 FILLER_11_161
*206 FILLER_11_168
*207 FILLER_11_175
*208 FILLER_11_182
*209 FILLER_11_189
*210 FILLER_11_196
*211 FILLER_11_203
*212 FILLER_11_21
*213 FILLER_11_210
*214 FILLER_11_217
*215 FILLER_11_224
*216 FILLER_11_231
*217 FILLER_11_238
*218 FILLER_11_245
*219 FILLER_11_252
*220 FILLER_11_259
*221 FILLER_11_266
*222 FILLER_11_273
*223 FILLER_11_28
*224 FILLER_11_280
*225 FILLER_11_287
*226 FILLER_11_294
*227 FILLER_11_301
*228 FILLER_11_308
*229 FILLER_11_315
*230 FILLER_11_322
*231 FILLER_11_329
*232 FILLER_11_336
*233 FILLER_11_343
*234 FILLER_11_35
*235 FILLER_11_350
*236 FILLER_11_357
*237 FILLER_11_364
*238 FILLER_11_371
*239 FILLER_11_378
*240 FILLER_11_385
*241 FILLER_11_42
*242 FILLER_11_49
*243 FILLER_11_56
*244 FILLER_11_63
*245 FILLER_11_7
*246 FILLER_11_70
*247 FILLER_11_77
*248 FILLER_11_84
*249 FILLER_11_91
*250 FILLER_11_98
*251 FILLER_12_0
*252 FILLER_12_105
*253 FILLER_12_112
*254 FILLER_12_119
*255 FILLER_12_126
*256 FILLER_12_133
*257 FILLER_12_14
*258 FILLER_12_140
*259 FILLER_12_147
*260 FILLER_12_154
*261 FILLER_12_161
*262 FILLER_12_168
*263 FILLER_12_175
*264 FILLER_12_182
*265 FILLER_12_189
*266 FILLER_12_196
*267 FILLER_12_203
*268 FILLER_12_21
*269 FILLER_12_210
*270 FILLER_12_217
*271 FILLER_12_224
*272 FILLER_12_231
*273 FILLER_12_238
*274 FILLER_12_245
*275 FILLER_12_252
*276 FILLER_12_259
*277 FILLER_12_266
*278 FILLER_12_273
*279 FILLER_12_28
*280 FILLER_12_280
*281 FILLER_12_287
*282 FILLER_12_294
*283 FILLER_12_301
*284 FILLER_12_308
*285 FILLER_12_315
*286 FILLER_12_322
*287 FILLER_12_329
*288 FILLER_12_336
*289 FILLER_12_343
*290 FILLER_12_35
*291 FILLER_12_350
*292 FILLER_12_357
*293 FILLER_12_364
*294 FILLER_12_371
*295 FILLER_12_378
*296 FILLER_12_385
*297 FILLER_12_42
*298 FILLER_12_49
*299 FILLER_12_56
*300 FILLER_12_63
*301 FILLER_12_7
*302 FILLER_12_70
*303 FILLER_12_77
*304 FILLER_12_84
*305 FILLER_12_91
*306 FILLER_12_98
*307 FILLER_13_0
*308 FILLER_13_105
*309 FILLER_13_112
*310 FILLER_13_119
*311 FILLER_13_126
*312 FILLER_13_133
*313 FILLER_13_14
*314 FILLER_13_140
*315 FILLER_13_147
*316 FILLER_13_154
*317 FILLER_13_161
*318 FILLER_13_168
*319 FILLER_13_175
*320 FILLER_13_182
*321 FILLER_13_189
*322 FILLER_13_196
*323 FILLER_13_203
*324 FILLER_13_21
*325 FILLER_13_210
*326 FILLER_13_217
*327 FILLER_13_224
*328 FILLER_13_231
*329 FILLER_13_238
*330 FILLER_13_245
*331 FILLER_13_254
*332 FILLER_13_261
*333 FILLER_13_268
*334 FILLER_13_275
*335 FILLER_13_28
*336 FILLER_13_282
*337 FILLER_13_289
*338 FILLER_13_296
*339 FILLER_13_303
*340 FILLER_13_310
*341 FILLER_13_317
*342 FILLER_13_324
*343 FILLER_13_331
*344 FILLER_13_338
*345 FILLER_13_345
*346 FILLER_13_35
*347 FILLER_13_352
*348 FILLER_13_359
*349 FILLER_13_366
*350 FILLER_13_373
*351 FILLER_13_380
*352 FILLER_13_387
*353 FILLER_13_391
*354 FILLER_13_42
*355 FILLER_13_49
*356 FILLER_13_53
*357 FILLER_13_63
*358 FILLER_13_7
*359 FILLER_13_70
*360 FILLER_13_77
*361 FILLER_13_84
*362 FILLER_13_91
*363 FILLER_13_98
*364 FILLER_14_0
*365 FILLER_14_105
*366 FILLER_14_112
*367 FILLER_14_119
*368 FILLER_14_126
*369 FILLER_14_133
*370 FILLER_14_14
*371 FILLER_14_140
*372 FILLER_14_147
*373 FILLER_14_151
*374 FILLER_14_188
*375 FILLER_14_21
*376 FILLER_14_221
*377 FILLER_14_228
*378 FILLER_14_235
*379 FILLER_14_242
*380 FILLER_14_253
*381 FILLER_14_28
*382 FILLER_14_284
*383 FILLER_14_291
*384 FILLER_14_298
*385 FILLER_14_305
*386 FILLER_14_312
*387 FILLER_14_319
*388 FILLER_14_326
*389 FILLER_14_333
*390 FILLER_14_340
*391 FILLER_14_347
*392 FILLER_14_35
*393 FILLER_14_354
*394 FILLER_14_361
*395 FILLER_14_368
*396 FILLER_14_375
*397 FILLER_14_382
*398 FILLER_14_389
*399 FILLER_14_391
*400 FILLER_14_42
*401 FILLER_14_49
*402 FILLER_14_51
*403 FILLER_14_61
*404 FILLER_14_7
*405 FILLER_14_77
*406 FILLER_14_84
*407 FILLER_14_91
*408 FILLER_14_98
*409 FILLER_15_0
*410 FILLER_15_102
*411 FILLER_15_109
*412 FILLER_15_116
*413 FILLER_15_123
*414 FILLER_15_130
*415 FILLER_15_137
*416 FILLER_15_142
*417 FILLER_15_195
*418 FILLER_15_21
*419 FILLER_15_231
*420 FILLER_15_233
*421 FILLER_15_28
*422 FILLER_15_282
*423 FILLER_15_289
*424 FILLER_15_296
*425 FILLER_15_303
*426 FILLER_15_310
*427 FILLER_15_317
*428 FILLER_15_324
*429 FILLER_15_331
*430 FILLER_15_338
*431 FILLER_15_345
*432 FILLER_15_352
*433 FILLER_15_359
*434 FILLER_15_366
*435 FILLER_15_373
*436 FILLER_15_38
*437 FILLER_15_380
*438 FILLER_15_387
*439 FILLER_15_391
*440 FILLER_15_45
*441 FILLER_15_7
*442 FILLER_15_83
*443 FILLER_15_87
*444 FILLER_15_92
*445 FILLER_16_0
*446 FILLER_16_110
*447 FILLER_16_14
*448 FILLER_16_145
*449 FILLER_16_149
*450 FILLER_16_194
*451 FILLER_16_196
*452 FILLER_16_215
*453 FILLER_16_225
*454 FILLER_16_229
*455 FILLER_16_282
*456 FILLER_16_289
*457 FILLER_16_296
*458 FILLER_16_303
*459 FILLER_16_310
*460 FILLER_16_317
*461 FILLER_16_324
*462 FILLER_16_331
*463 FILLER_16_338
*464 FILLER_16_345
*465 FILLER_16_352
*466 FILLER_16_359
*467 FILLER_16_366
*468 FILLER_16_373
*469 FILLER_16_380
*470 FILLER_16_387
*471 FILLER_16_391
*472 FILLER_16_42
*473 FILLER_16_46
*474 FILLER_16_7
*475 FILLER_17_0
*476 FILLER_17_104
*477 FILLER_17_11
*478 FILLER_17_111
*479 FILLER_17_115
*480 FILLER_17_121
*481 FILLER_17_128
*482 FILLER_17_135
*483 FILLER_17_142
*484 FILLER_17_149
*485 FILLER_17_153
*486 FILLER_17_17
*487 FILLER_17_177
*488 FILLER_17_182
*489 FILLER_17_189
*490 FILLER_17_19
*491 FILLER_17_196
*492 FILLER_17_203
*493 FILLER_17_220
*494 FILLER_17_225
*495 FILLER_17_232
*496 FILLER_17_239
*497 FILLER_17_24
*498 FILLER_17_268
*499 FILLER_17_272
*500 FILLER_17_277
*501 FILLER_17_284
*502 FILLER_17_291
*503 FILLER_17_298
*504 FILLER_17_305
*505 FILLER_17_31
*506 FILLER_17_312
*507 FILLER_17_319
*508 FILLER_17_323
*509 FILLER_17_329
*510 FILLER_17_336
*511 FILLER_17_343
*512 FILLER_17_350
*513 FILLER_17_357
*514 FILLER_17_364
*515 FILLER_17_371
*516 FILLER_17_375
*517 FILLER_17_38
*518 FILLER_17_381
*519 FILLER_17_388
*520 FILLER_17_45
*521 FILLER_17_52
*522 FILLER_17_59
*523 FILLER_17_63
*524 FILLER_17_69
*525 FILLER_17_7
*526 FILLER_17_76
*527 FILLER_17_83
*528 FILLER_17_90
*529 FILLER_17_97
*530 FILLER_1_102
*531 FILLER_1_109
*532 FILLER_1_11
*533 FILLER_1_116
*534 FILLER_1_123
*535 FILLER_1_130
*536 FILLER_1_137
*537 FILLER_1_144
*538 FILLER_1_151
*539 FILLER_1_158
*540 FILLER_1_165
*541 FILLER_1_172
*542 FILLER_1_179
*543 FILLER_1_18
*544 FILLER_1_186
*545 FILLER_1_193
*546 FILLER_1_200
*547 FILLER_1_207
*548 FILLER_1_214
*549 FILLER_1_221
*550 FILLER_1_228
*551 FILLER_1_235
*552 FILLER_1_242
*553 FILLER_1_249
*554 FILLER_1_25
*555 FILLER_1_256
*556 FILLER_1_263
*557 FILLER_1_270
*558 FILLER_1_277
*559 FILLER_1_284
*560 FILLER_1_291
*561 FILLER_1_298
*562 FILLER_1_305
*563 FILLER_1_312
*564 FILLER_1_319
*565 FILLER_1_32
*566 FILLER_1_326
*567 FILLER_1_333
*568 FILLER_1_340
*569 FILLER_1_347
*570 FILLER_1_354
*571 FILLER_1_361
*572 FILLER_1_368
*573 FILLER_1_375
*574 FILLER_1_382
*575 FILLER_1_389
*576 FILLER_1_39
*577 FILLER_1_391
*578 FILLER_1_4
*579 FILLER_1_46
*580 FILLER_1_53
*581 FILLER_1_60
*582 FILLER_1_67
*583 FILLER_1_74
*584 FILLER_1_81
*585 FILLER_1_88
*586 FILLER_1_95
*587 FILLER_2_0
*588 FILLER_2_105
*589 FILLER_2_112
*590 FILLER_2_119
*591 FILLER_2_126
*592 FILLER_2_133
*593 FILLER_2_14
*594 FILLER_2_140
*595 FILLER_2_147
*596 FILLER_2_154
*597 FILLER_2_161
*598 FILLER_2_168
*599 FILLER_2_175
*600 FILLER_2_182
*601 FILLER_2_189
*602 FILLER_2_196
*603 FILLER_2_203
*604 FILLER_2_21
*605 FILLER_2_210
*606 FILLER_2_217
*607 FILLER_2_224
*608 FILLER_2_231
*609 FILLER_2_238
*610 FILLER_2_245
*611 FILLER_2_252
*612 FILLER_2_259
*613 FILLER_2_266
*614 FILLER_2_273
*615 FILLER_2_28
*616 FILLER_2_280
*617 FILLER_2_287
*618 FILLER_2_294
*619 FILLER_2_301
*620 FILLER_2_308
*621 FILLER_2_315
*622 FILLER_2_322
*623 FILLER_2_329
*624 FILLER_2_336
*625 FILLER_2_343
*626 FILLER_2_35
*627 FILLER_2_350
*628 FILLER_2_357
*629 FILLER_2_364
*630 FILLER_2_371
*631 FILLER_2_378
*632 FILLER_2_385
*633 FILLER_2_42
*634 FILLER_2_49
*635 FILLER_2_56
*636 FILLER_2_63
*637 FILLER_2_7
*638 FILLER_2_70
*639 FILLER_2_77
*640 FILLER_2_84
*641 FILLER_2_91
*642 FILLER_2_98
*643 FILLER_3_0
*644 FILLER_3_105
*645 FILLER_3_112
*646 FILLER_3_119
*647 FILLER_3_126
*648 FILLER_3_133
*649 FILLER_3_14
*650 FILLER_3_140
*651 FILLER_3_147
*652 FILLER_3_154
*653 FILLER_3_161
*654 FILLER_3_168
*655 FILLER_3_175
*656 FILLER_3_182
*657 FILLER_3_189
*658 FILLER_3_196
*659 FILLER_3_203
*660 FILLER_3_21
*661 FILLER_3_210
*662 FILLER_3_217
*663 FILLER_3_224
*664 FILLER_3_231
*665 FILLER_3_238
*666 FILLER_3_245
*667 FILLER_3_252
*668 FILLER_3_259
*669 FILLER_3_266
*670 FILLER_3_273
*671 FILLER_3_28
*672 FILLER_3_280
*673 FILLER_3_287
*674 FILLER_3_294
*675 FILLER_3_301
*676 FILLER_3_308
*677 FILLER_3_315
*678 FILLER_3_322
*679 FILLER_3_329
*680 FILLER_3_336
*681 FILLER_3_343
*682 FILLER_3_35
*683 FILLER_3_350
*684 FILLER_3_357
*685 FILLER_3_364
*686 FILLER_3_371
*687 FILLER_3_378
*688 FILLER_3_385
*689 FILLER_3_42
*690 FILLER_3_49
*691 FILLER_3_56
*692 FILLER_3_63
*693 FILLER_3_7
*694 FILLER_3_70
*695 FILLER_3_77
*696 FILLER_3_84
*697 FILLER_3_91
*698 FILLER_3_98
*699 FILLER_4_0
*700 FILLER_4_105
*701 FILLER_4_112
*702 FILLER_4_119
*703 FILLER_4_126
*704 FILLER_4_133
*705 FILLER_4_14
*706 FILLER_4_140
*707 FILLER_4_147
*708 FILLER_4_154
*709 FILLER_4_161
*710 FILLER_4_168
*711 FILLER_4_175
*712 FILLER_4_182
*713 FILLER_4_189
*714 FILLER_4_196
*715 FILLER_4_203
*716 FILLER_4_21
*717 FILLER_4_210
*718 FILLER_4_217
*719 FILLER_4_224
*720 FILLER_4_231
*721 FILLER_4_238
*722 FILLER_4_245
*723 FILLER_4_252
*724 FILLER_4_259
*725 FILLER_4_266
*726 FILLER_4_273
*727 FILLER_4_28
*728 FILLER_4_280
*729 FILLER_4_287
*730 FILLER_4_294
*731 FILLER_4_301
*732 FILLER_4_308
*733 FILLER_4_315
*734 FILLER_4_322
*735 FILLER_4_329
*736 FILLER_4_336
*737 FILLER_4_343
*738 FILLER_4_35
*739 FILLER_4_350
*740 FILLER_4_357
*741 FILLER_4_364
*742 FILLER_4_371
*743 FILLER_4_378
*744 FILLER_4_385
*745 FILLER_4_42
*746 FILLER_4_49
*747 FILLER_4_56
*748 FILLER_4_63
*749 FILLER_4_7
*750 FILLER_4_70
*751 FILLER_4_77
*752 FILLER_4_84
*753 FILLER_4_91
*754 FILLER_4_98
*755 FILLER_5_0
*756 FILLER_5_105
*757 FILLER_5_112
*758 FILLER_5_119
*759 FILLER_5_126
*760 FILLER_5_133
*761 FILLER_5_14
*762 FILLER_5_140
*763 FILLER_5_147
*764 FILLER_5_154
*765 FILLER_5_161
*766 FILLER_5_168
*767 FILLER_5_175
*768 FILLER_5_182
*769 FILLER_5_189
*770 FILLER_5_196
*771 FILLER_5_203
*772 FILLER_5_21
*773 FILLER_5_210
*774 FILLER_5_217
*775 FILLER_5_224
*776 FILLER_5_231
*777 FILLER_5_238
*778 FILLER_5_245
*779 FILLER_5_252
*780 FILLER_5_259
*781 FILLER_5_266
*782 FILLER_5_273
*783 FILLER_5_28
*784 FILLER_5_280
*785 FILLER_5_287
*786 FILLER_5_294
*787 FILLER_5_301
*788 FILLER_5_308
*789 FILLER_5_315
*790 FILLER_5_322
*791 FILLER_5_329
*792 FILLER_5_336
*793 FILLER_5_343
*794 FILLER_5_35
*795 FILLER_5_350
*796 FILLER_5_357
*797 FILLER_5_364
*798 FILLER_5_371
*799 FILLER_5_378
*800 FILLER_5_385
*801 FILLER_5_42
*802 FILLER_5_49
*803 FILLER_5_56
*804 FILLER_5_63
*805 FILLER_5_7
*806 FILLER_5_70
*807 FILLER_5_77
*808 FILLER_5_84
*809 FILLER_5_91
*810 FILLER_5_98
*811 FILLER_6_0
*812 FILLER_6_105
*813 FILLER_6_112
*814 FILLER_6_119
*815 FILLER_6_126
*816 FILLER_6_133
*817 FILLER_6_14
*818 FILLER_6_140
*819 FILLER_6_147
*820 FILLER_6_154
*821 FILLER_6_161
*822 FILLER_6_168
*823 FILLER_6_175
*824 FILLER_6_182
*825 FILLER_6_189
*826 FILLER_6_196
*827 FILLER_6_203
*828 FILLER_6_21
*829 FILLER_6_210
*830 FILLER_6_217
*831 FILLER_6_224
*832 FILLER_6_231
*833 FILLER_6_238
*834 FILLER_6_245
*835 FILLER_6_252
*836 FILLER_6_259
*837 FILLER_6_266
*838 FILLER_6_273
*839 FILLER_6_28
*840 FILLER_6_280
*841 FILLER_6_287
*842 FILLER_6_294
*843 FILLER_6_301
*844 FILLER_6_308
*845 FILLER_6_315
*846 FILLER_6_322
*847 FILLER_6_329
*848 FILLER_6_336
*849 FILLER_6_343
*850 FILLER_6_35
*851 FILLER_6_350
*852 FILLER_6_357
*853 FILLER_6_364
*854 FILLER_6_371
*855 FILLER_6_378
*856 FILLER_6_385
*857 FILLER_6_42
*858 FILLER_6_49
*859 FILLER_6_56
*860 FILLER_6_63
*861 FILLER_6_7
*862 FILLER_6_70
*863 FILLER_6_77
*864 FILLER_6_84
*865 FILLER_6_91
*866 FILLER_6_98
*867 FILLER_7_0
*868 FILLER_7_105
*869 FILLER_7_112
*870 FILLER_7_119
*871 FILLER_7_126
*872 FILLER_7_133
*873 FILLER_7_14
*874 FILLER_7_140
*875 FILLER_7_147
*876 FILLER_7_154
*877 FILLER_7_161
*878 FILLER_7_168
*879 FILLER_7_175
*880 FILLER_7_182
*881 FILLER_7_189
*882 FILLER_7_196
*883 FILLER_7_203
*884 FILLER_7_21
*885 FILLER_7_210
*886 FILLER_7_217
*887 FILLER_7_224
*888 FILLER_7_231
*889 FILLER_7_238
*890 FILLER_7_245
*891 FILLER_7_252
*892 FILLER_7_259
*893 FILLER_7_266
*894 FILLER_7_273
*895 FILLER_7_28
*896 FILLER_7_280
*897 FILLER_7_287
*898 FILLER_7_294
*899 FILLER_7_301
*900 FILLER_7_308
*901 FILLER_7_315
*902 FILLER_7_322
*903 FILLER_7_329
*904 FILLER_7_336
*905 FILLER_7_343
*906 FILLER_7_35
*907 FILLER_7_350
*908 FILLER_7_357
*909 FILLER_7_364
*910 FILLER_7_371
*911 FILLER_7_378
*912 FILLER_7_385
*913 FILLER_7_42
*914 FILLER_7_49
*915 FILLER_7_56
*916 FILLER_7_63
*917 FILLER_7_7
*918 FILLER_7_70
*919 FILLER_7_77
*920 FILLER_7_84
*921 FILLER_7_91
*922 FILLER_7_98
*923 FILLER_8_0
*924 FILLER_8_105
*925 FILLER_8_112
*926 FILLER_8_119
*927 FILLER_8_126
*928 FILLER_8_133
*929 FILLER_8_14
*930 FILLER_8_140
*931 FILLER_8_147
*932 FILLER_8_154
*933 FILLER_8_161
*934 FILLER_8_168
*935 FILLER_8_175
*936 FILLER_8_182
*937 FILLER_8_189
*938 FILLER_8_196
*939 FILLER_8_203
*940 FILLER_8_21
*941 FILLER_8_210
*942 FILLER_8_217
*943 FILLER_8_224
*944 FILLER_8_231
*945 FILLER_8_238
*946 FILLER_8_245
*947 FILLER_8_252
*948 FILLER_8_259
*949 FILLER_8_266
*950 FILLER_8_273
*951 FILLER_8_28
*952 FILLER_8_280
*953 FILLER_8_287
*954 FILLER_8_294
*955 FILLER_8_301
*956 FILLER_8_308
*957 FILLER_8_315
*958 FILLER_8_322
*959 FILLER_8_329
*960 FILLER_8_336
*961 FILLER_8_343
*962 FILLER_8_35
*963 FILLER_8_350
*964 FILLER_8_357
*965 FILLER_8_364
*966 FILLER_8_371
*967 FILLER_8_378
*968 FILLER_8_385
*969 FILLER_8_42
*970 FILLER_8_49
*971 FILLER_8_56
*972 FILLER_8_63
*973 FILLER_8_7
*974 FILLER_8_70
*975 FILLER_8_77
*976 FILLER_8_84
*977 FILLER_8_91
*978 FILLER_8_98
*979 FILLER_9_102
*980 FILLER_9_109
*981 FILLER_9_11
*982 FILLER_9_116
*983 FILLER_9_123
*984 FILLER_9_130
*985 FILLER_9_137
*986 FILLER_9_144
*987 FILLER_9_151
*988 FILLER_9_158
*989 FILLER_9_165
*990 FILLER_9_172
*991 FILLER_9_179
*992 FILLER_9_18
*993 FILLER_9_186
*994 FILLER_9_193
*995 FILLER_9_200
*996 FILLER_9_207
*997 FILLER_9_214
*998 FILLER_9_221
*999 FILLER_9_228
*1000 FILLER_9_235
*1001 FILLER_9_242
*1002 FILLER_9_249
*1003 FILLER_9_25
*1004 FILLER_9_256
*1005 FILLER_9_263
*1006 FILLER_9_270
*1007 FILLER_9_277
*1008 FILLER_9_284
*1009 FILLER_9_291
*1010 FILLER_9_298
*1011 FILLER_9_305
*1012 FILLER_9_312
*1013 FILLER_9_319
*1014 FILLER_9_32
*1015 FILLER_9_326
*1016 FILLER_9_333
*1017 FILLER_9_340
*1018 FILLER_9_347
*1019 FILLER_9_354
*1020 FILLER_9_361
*1021 FILLER_9_368
*1022 FILLER_9_375
*1023 FILLER_9_382
*1024 FILLER_9_389
*1025 FILLER_9_39
*1026 FILLER_9_391
*1027 FILLER_9_4
*1028 FILLER_9_46
*1029 FILLER_9_53
*1030 FILLER_9_60
*1031 FILLER_9_67
*1032 FILLER_9_74
*1033 FILLER_9_81
*1034 FILLER_9_88
*1035 FILLER_9_95
*1036 _37_
*1037 _38_
*1038 _39_
*1039 _40_
*1040 _41_
*1041 _42_
*1042 _43_
*1043 _44_
*1044 _45_
*1045 _46_
*1046 _47_
*1047 _48_
*1048 _49_
*1049 _50_
*1050 _51_
*1051 _52_
*1052 _53_
*1053 _54_
*1054 _55_
*1055 _56_
*1056 _57_
*1057 _58_
*1058 _59_
*1059 _60_
*1060 _61_
*1061 _62_
*1062 _63_
*1063 _64_
*1064 _65_
*1065 _66_
*1066 _66__18
*1067 _67_
*1068 _67__16
*1069 _68_
*1070 _68__14
*1071 _69_
*1072 _69__19
*1073 _70_
*1074 _70__15
*1075 _71_
*1076 _71__17
*1077 _72_
*1078 _72__13
*1079 _73_
*1080 _73__12
*1081 clkbuf_0_clock_i
*1082 clkbuf_1_0__f_clock_i
*1083 clkbuf_1_1__f_clock_i
*1084 fanout11
*1085 hold20
*1086 hold21
*1087 hold22
*1088 hold23
*1089 hold24
*1090 hold25
*1091 hold26
*1092 hold27
*1093 hold28
*1094 hold29
*1095 hold30
*1096 hold31
*1097 hold32
*1098 hold33
*1099 hold34
*1100 hold35
*1101 hold36
*1102 hold37
*1103 input1
*1104 input2
*1105 output10
*1106 output3
*1107 output4
*1108 output5
*1109 output6
*1110 output7
*1111 output8
*1112 output9

*PORTS
clock_i I
counter_value_o[0] O
counter_value_o[1] O
counter_value_o[2] O
counter_value_o[3] O
counter_value_o[4] O
counter_value_o[5] O
counter_value_o[6] O
counter_value_o[7] O
enable_i I
reset_n_i I

*D_NET *3 0.00696943
*CONN
*P clock_i I
*I *1081:A I *D sg13g2_buf_16
*CAP
1 clock_i 0.00306258
2 *1081:A 0.000422135
3 *3:10 0.00348472
4 *1081:A *1041:B 0
5 *1081:A *1077:D 0
6 *1081:A *22:12 0
7 *1081:A *24:14 0
8 *3:10 *1097:A 0
9 *3:10 *1106:A 0
10 *3:10 *1108:A 0
11 *3:10 *25:8 0
12 *3:10 *41:8 0
*RES
1 clock_i *3:10 39.1812 
2 *3:10 *1081:A 44.0744 
*END

*D_NET *4 0.00154285
*CONN
*P counter_value_o[0] O
*I *1106:X O *D sg13g2_buf_1
*CAP
1 counter_value_o[0] 0.000771425
2 *1106:X 0.000771425
*RES
1 *1106:X counter_value_o[0] 29.4039 
*END

*D_NET *5 0.00153378
*CONN
*P counter_value_o[1] O
*I *1107:X O *D sg13g2_buf_1
*CAP
1 counter_value_o[1] 0.000766888
2 *1107:X 0.000766888
*RES
1 *1107:X counter_value_o[1] 29.4039 
*END

*D_NET *6 0.00153378
*CONN
*P counter_value_o[2] O
*I *1108:X O *D sg13g2_buf_1
*CAP
1 counter_value_o[2] 0.000766888
2 *1108:X 0.000766888
*RES
1 *1108:X counter_value_o[2] 29.4039 
*END

*D_NET *7 0.00168854
*CONN
*P counter_value_o[3] O
*I *1109:X O *D sg13g2_buf_1
*CAP
1 counter_value_o[3] 0.00084427
2 *1109:X 0.00084427
*RES
1 *1109:X counter_value_o[3] 30.4957 
*END

*D_NET *8 0.00152358
*CONN
*P counter_value_o[4] O
*I *1110:X O *D sg13g2_buf_1
*CAP
1 counter_value_o[4] 0.000761791
2 *1110:X 0.000761791
*RES
1 *1110:X counter_value_o[4] 29.4039 
*END

*D_NET *9 0.00162609
*CONN
*P counter_value_o[5] O
*I *1111:X O *D sg13g2_buf_1
*CAP
1 counter_value_o[5] 0.000813046
2 *1111:X 0.000813046
*RES
1 *1111:X counter_value_o[5] 30.1043 
*END

*D_NET *10 0.00152358
*CONN
*P counter_value_o[6] O
*I *1112:X O *D sg13g2_buf_1
*CAP
1 counter_value_o[6] 0.000761791
2 *1112:X 0.000761791
*RES
1 *1112:X counter_value_o[6] 29.4039 
*END

*D_NET *11 0.00152358
*CONN
*P counter_value_o[7] O
*I *1105:X O *D sg13g2_buf_1
*CAP
1 counter_value_o[7] 0.000761791
2 *1105:X 0.000761791
*RES
1 *1105:X counter_value_o[7] 29.4039 
*END

*D_NET *12 0.000834467
*CONN
*P enable_i I
*I *1103:A I *D sg13g2_buf_1
*CAP
1 enable_i 0.000417234
2 *1103:A 0.000417234
*RES
1 enable_i *1103:A 44.9955 
*END

*D_NET *13 0.000590842
*CONN
*P reset_n_i I
*I *1104:A I *D sg13g2_buf_1
*CAP
1 reset_n_i 0.000295421
2 *1104:A 0.000295421
*RES
1 reset_n_i *1104:A 43.6977 
*END

*D_NET *14 0.000745824
*CONN
*I *1077:D I *D sg13g2_dfrbpq_1
*I *1041:Y O *D sg13g2_nor2_1
*CAP
1 *1077:D 0.000349041
2 *1041:Y 0.000349041
3 *1077:D *1041:A 4.77425e-05
4 *1077:D *1077:RESET_B 0
5 *1081:A *1077:D 0
*RES
1 *1041:Y *1077:D 43.914 
*END

*D_NET *15 0.00223205
*CONN
*I *1096:A I *D sg13g2_dlygate4sd3_1
*I *1044:Y O *D sg13g2_a21oi_1
*CAP
1 *1096:A 0.000501284
2 *1044:Y 0.000501284
3 *1096:A *1044:A2 0
4 *1096:A *1044:B1 0.000695771
5 *1096:A *44:51 0.000533713
*RES
1 *1044:Y *1096:A 45.8916 
*END

*D_NET *16 0.000977204
*CONN
*I *1093:A I *D sg13g2_dlygate4sd3_1
*I *1048:Y O *D sg13g2_a21oi_1
*CAP
1 *1093:A 0
2 *1048:Y 0.000464974
3 *16:10 0.000464974
4 *16:10 *22:53 4.72562e-05
5 *16:10 *55:8 0
*RES
1 *1048:Y *16:10 44.9337 
2 *16:10 *1093:A 40 
*END

*D_NET *17 0.00265853
*CONN
*I *1087:A I *D sg13g2_dlygate4sd3_1
*I *1052:Y O *D sg13g2_a21oi_1
*CAP
1 *1087:A 0.000250825
2 *1052:Y 0.000462791
3 *17:14 0.000713616
4 *1087:A *1052:B1 0
5 *1087:A *1067:RESET_B 0
6 *1087:A *1069:RESET_B 0.000403611
7 *17:14 *1052:A1 0.000145141
8 *17:14 *1052:B1 0.000447394
9 *17:14 *45:30 0
10 *17:14 *63:8 0.000235153
*RES
1 *1052:Y *17:14 45.7268 
2 *17:14 *1087:A 42.6986 
*END

*D_NET *18 0.00114069
*CONN
*I *1090:A I *D sg13g2_dlygate4sd3_1
*I *1056:Y O *D sg13g2_a21oi_1
*CAP
1 *1090:A 0.000433101
2 *1056:Y 0.000433101
3 *1090:A *1052:A2 0
4 *1090:A *1055:A 0.000274491
5 *1090:A *1056:A2 0
6 *1090:A *1056:B1 0
7 *1090:A *1086:A 0
8 *1090:A *36:10 0
*RES
1 *1056:Y *1090:A 44.0479 
*END

*D_NET *19 0.000714334
*CONN
*I *1071:D I *D sg13g2_dfrbpq_1
*I *1058:X O *D sg13g2_and2_1
*CAP
1 *1071:D 0.000317111
2 *1058:X 0.000317111
3 *1071:D *1057:B 8.01116e-05
4 *1071:D *1058:B 0
5 *1071:D *47:12 0
6 *1071:D *47:23 0
*RES
1 *1058:X *1071:D 43.7389 
*END

*D_NET *20 9.45957e-05
*CONN
*I *1073:D I *D sg13g2_dfrbpq_1
*I *1061:X O *D sg13g2_and2_1
*CAP
1 *1073:D 4.72978e-05
2 *1061:X 4.72978e-05
3 *1073:D *1061:B 0
4 *1073:D *1073:RESET_B 0
*RES
1 *1061:X *1073:D 40.5974 
*END

*D_NET *21 0.000356179
*CONN
*I *1075:D I *D sg13g2_dfrbpq_1
*I *1064:X O *D sg13g2_and2_1
*CAP
1 *1075:D 0.00017809
2 *1064:X 0.00017809
3 *1075:D *1064:B 0
4 *1075:D *1075:RESET_B 0
*RES
1 *1064:X *1075:D 41.8849 
*END

*D_NET *22 0.0120745
*CONN
*I *1052:B1 I *D sg13g2_a21oi_1
*I *1056:B1 I *D sg13g2_a21oi_1
*I *1048:B1 I *D sg13g2_a21oi_1
*I *1044:B1 I *D sg13g2_a21oi_1
*I *1041:A I *D sg13g2_nor2_1
*I *1036:Y O *D sg13g2_inv_1
*CAP
1 *1052:B1 0.000915591
2 *1056:B1 0.000165241
3 *1048:B1 3.14925e-05
4 *1044:B1 0.000499514
5 *1041:A 8.34497e-05
6 *1036:Y 0.000231771
7 *22:53 0.00230691
8 *22:40 0.00242226
9 *22:23 0.00185622
10 *22:12 0.000507229
11 *1044:B1 *1044:A1 0
12 *1044:B1 *1044:A2 0
13 *1044:B1 *1077:RESET_B 0
14 *1044:B1 *43:6 0
15 *1052:B1 *1052:A1 0
16 *1052:B1 *1056:A2 0
17 *1052:B1 *1067:RESET_B 0
18 *1052:B1 *1067:D 0.000177466
19 *1052:B1 *1069:D 0
20 *1052:B1 *36:10 0
21 *1052:B1 *61:8 0
22 *1056:B1 *1056:A2 0
23 *1056:B1 *1086:A 0
24 *1056:B1 *36:10 0.000209297
25 *22:12 *44:51 0.000555408
26 *22:23 *44:51 0.000605303
27 *22:40 *1048:A1 7.97574e-05
28 *22:40 *1065:D 0
29 *22:40 *1083:A 0
30 *22:40 *1109:A 0
31 *22:40 *29:14 4.76661e-05
32 *22:40 *44:51 0.000126358
33 *22:40 *49:25 0
34 *22:40 *49:40 0
35 *22:40 *79:12 0
36 *22:40 *79:42 0
37 *22:40 *79:57 0
38 *22:53 *1048:A1 1.53666e-05
39 *22:53 *1053:C 0
40 *22:53 *1065:D 0
41 *22:53 *55:8 0
42 *22:53 *80:28 0
43 *22:53 *80:39 0
44 *22:53 *81:32 0
45 *22:53 *81:45 0
46 *1077:D *1041:A 4.77425e-05
47 *1081:A *22:12 0
48 *1087:A *1052:B1 0
49 *1090:A *1056:B1 0
50 *1096:A *1044:B1 0.000695771
51 *16:10 *22:53 4.72562e-05
52 *17:14 *1052:B1 0.000447394
*RES
1 *1036:Y *22:12 43.4299 
2 *22:12 *1041:A 40.7519 
3 *22:12 *22:23 2.8222 
4 *22:23 *1044:B1 45.6753 
5 *22:23 *22:40 30.9901 
6 *22:40 *1048:B1 20.3502 
7 *22:40 *22:53 31.7008 
8 *22:53 *1056:B1 41.751 
9 *22:53 *1052:B1 49.6202 
*END

*D_NET *23 0.00330486
*CONN
*I *1042:A1 I *D sg13g2_o21ai_1
*I *1043:B I *D sg13g2_or3_1
*I *1040:A I *D sg13g2_xnor2_1
*I *1037:Y O *D sg13g2_inv_1
*CAP
1 *1042:A1 0.000314999
2 *1043:B 0.000165364
3 *1040:A 0.000244349
4 *1037:Y 8.57398e-05
5 *23:21 0.000608445
6 *23:8 0.000458171
7 *1040:A *1040:B 8.00842e-05
8 *1040:A *1077:RESET_B 0
9 *1040:A *25:8 0.000232418
10 *1040:A *49:25 0
11 *1042:A1 *1042:B1 0
12 *1042:A1 *49:25 0
13 *1042:A1 *49:40 3.23417e-05
14 *1042:A1 *49:50 1.54008e-05
15 *1042:A1 *67:21 0
16 *1042:A1 *76:10 0.000698212
17 *1043:B *1037:A 0
18 *1043:B *1043:C 0
19 *1043:B *1044:A2 0
20 *23:8 *1037:A 8.02276e-05
21 *23:8 *1044:A2 0
22 *23:8 *1084:A 0
23 *23:21 *49:25 0
24 *23:21 *76:10 0.000289113
*RES
1 *1037:Y *23:8 40.7519 
2 *23:8 *1040:A 42.5544 
3 *23:8 *23:21 1.5862 
4 *23:21 *1043:B 41.4008 
5 *23:21 *1042:A1 43.7904 
*END

*D_NET *24 0.0045118
*CONN
*I *1039:A I *D sg13g2_buf_4
*I *1038:Y O *D sg13g2_nand4_1
*CAP
1 *1039:A 0
2 *1038:Y 4.92368e-05
3 *24:14 0.00215911
4 *24:8 0.00220835
5 *24:8 *1038:C 0
6 *24:8 *1038:A 1.54008e-05
7 *24:8 *44:16 7.9706e-05
8 *24:14 *44:8 0
9 *24:14 *44:16 0
10 *24:14 *44:51 0
11 *24:14 *58:27 0
12 *24:14 *58:40 0
13 *1081:A *24:14 0
*RES
1 *1038:Y *24:8 40.5356 
2 *24:8 *24:14 39.364 
3 *24:14 *1039:A 20 
*END

*D_NET *25 0.00598305
*CONN
*I *1084:A I *D sg13g2_buf_1
*I *1055:B I *D sg13g2_or3_1
*I *1039:X O *D sg13g2_buf_4
*CAP
1 *1084:A 0.000164458
2 *1055:B 0
3 *1039:X 0.00038937
4 *25:24 0
5 *25:20 0.0019127
6 *25:14 0.00216695
7 *25:8 0.000808081
8 *1084:A *1037:A 0
9 *1084:A *1077:RESET_B 0
10 *1084:A *49:8 0
11 *25:8 *1040:B 0.000181192
12 *25:8 *43:15 0
13 *25:8 *49:25 0.000127878
14 *1040:A *25:8 0.000232418
15 *3:10 *25:8 0
16 *23:8 *1084:A 0
*RES
1 *1039:X *25:8 44.7998 
2 *25:8 *25:14 43.1312 
3 *25:14 *25:20 43.2265 
4 *25:20 *25:24 40 
5 *25:24 *1055:B 20 
6 *25:8 *1084:A 41.4008 
*END

*D_NET *26 0.000165085
*CONN
*I *1041:B I *D sg13g2_nor2_1
*I *1040:Y O *D sg13g2_xnor2_1
*CAP
1 *1041:B 8.25424e-05
2 *1040:Y 8.25424e-05
3 *1041:B *1077:RESET_B 0
4 *1081:A *1041:B 0
*RES
1 *1040:Y *1041:B 40.9167 
*END

*D_NET *27 0.000611159
*CONN
*I *1095:A I *D sg13g2_dlygate4sd3_1
*I *1042:Y O *D sg13g2_o21ai_1
*CAP
1 *1095:A 0
2 *1042:Y 7.15233e-05
3 *27:8 7.15233e-05
4 *27:8 *1109:A 0.000287415
5 *27:8 *49:40 0.000180697
*RES
1 *1042:Y *27:8 41.339 
2 *27:8 *1095:A 40 
*END

*D_NET *28 0.00173852
*CONN
*I *1044:A2 I *D sg13g2_a21oi_1
*I *1043:X O *D sg13g2_or3_1
*CAP
1 *1044:A2 0.000815546
2 *1043:X 0.000815546
3 *1044:A2 *1037:A 0
4 *1044:A2 *1043:C 0
5 *1044:A2 *1044:A1 9.55338e-05
6 *1044:A2 *1079:D 0
7 *1044:A2 *1109:A 0
8 *1044:A2 *43:33 1.18941e-05
9 *1044:A2 *44:51 0
10 *1043:B *1044:A2 0
11 *1044:B1 *1044:A2 0
12 *1096:A *1044:A2 0
13 *23:8 *1044:A2 0
*RES
1 *1043:X *1044:A2 47.8745 
*END

*D_NET *29 0.00304965
*CONN
*I *1046:A2 I *D sg13g2_o21ai_1
*I *1047:C I *D sg13g2_or3_1
*I *1045:Y O *D sg13g2_nand2_1
*CAP
1 *1046:A2 0
2 *1047:C 0
3 *1045:Y 0.000252909
4 *29:24 0.000717721
5 *29:14 0.000970631
6 *29:14 *1045:B 1.54008e-05
7 *29:14 *1065:D 0
8 *29:14 *49:50 6.46834e-05
9 *29:14 *64:21 1.54008e-05
10 *29:14 *80:6 0
11 *29:24 *1047:A 0
12 *29:24 *1047:B 0
13 *29:24 *45:19 0
14 *29:24 *45:30 0
15 *29:24 *49:50 1.54008e-05
16 *29:24 *49:56 7.99246e-05
17 *29:24 *64:21 0.000869914
18 *22:40 *29:14 4.76661e-05
*RES
1 *1045:Y *29:14 23.0179 
2 *29:14 *29:24 47.1688 
3 *29:24 *1047:C 20 
4 *29:14 *1046:A2 20 
*END

*D_NET *30 0.00108496
*CONN
*I *1092:A I *D sg13g2_dlygate4sd3_1
*I *1046:Y O *D sg13g2_o21ai_1
*CAP
1 *1092:A 0.000121313
2 *1046:Y 0.000316266
3 *30:8 0.000437578
4 *1092:A *1065:RESET_B 0
5 *1092:A *31:10 0.000209807
6 *30:8 *31:10 0
7 *30:8 *45:19 0
*RES
1 *1046:Y *30:8 42.8222 
2 *30:8 *1092:A 41.4008 
*END

*D_NET *31 0.0018234
*CONN
*I *1048:A2 I *D sg13g2_a21oi_1
*I *1047:X O *D sg13g2_or3_1
*CAP
1 *1048:A2 0
2 *1047:X 0.000529351
3 *31:10 0.000529351
4 *31:10 *1047:A 0
5 *31:10 *1091:A 0
6 *31:10 *45:8 0
7 *31:10 *64:6 0
8 *31:10 *79:57 0.000554894
9 *1092:A *31:10 0.000209807
10 *30:8 *31:10 0
*RES
1 *1047:X *31:10 45.9225 
2 *31:10 *1048:A2 40 
*END

*D_NET *32 0.000644432
*CONN
*I *1051:C I *D sg13g2_or3_1
*I *1050:A2 I *D sg13g2_o21ai_1
*I *1049:Y O *D sg13g2_nand3_1
*CAP
1 *1051:C 0.00013174
2 *1050:A2 4.36919e-05
3 *1049:Y 0.000131384
4 *32:8 0.000306815
5 *1050:A2 *1050:A1 1.54008e-05
6 *1050:A2 *57:33 1.54008e-05
7 *1050:A2 *81:8 0
8 *1051:C *1054:A1 0
9 *1051:C *35:8 0
10 *32:8 *1054:A1 0
11 *32:8 *81:8 0
*RES
1 *1049:Y *32:8 21.5656 
2 *32:8 *1050:A2 20.5356 
3 *32:8 *1051:C 21.6274 
*END

*D_NET *33 0.00162013
*CONN
*I *1086:A I *D sg13g2_dlygate4sd3_1
*I *1050:Y O *D sg13g2_o21ai_1
*CAP
1 *1086:A 0.000275595
2 *1050:Y 0.000135055
3 *33:10 0.00041065
4 *1086:A *1052:A2 0
5 *1086:A *1055:C 0
6 *1086:A *36:10 1.54008e-05
7 *33:10 *45:30 0.000447182
8 *33:10 *57:33 0.000336244
9 *1056:B1 *1086:A 0
10 *1090:A *1086:A 0
*RES
1 *1050:Y *33:10 42.3999 
2 *33:10 *1086:A 42.3999 
*END

*D_NET *34 0.00123856
*CONN
*I *1052:A2 I *D sg13g2_a21oi_1
*I *1051:X O *D sg13g2_or3_1
*CAP
1 *1052:A2 0.000441885
2 *1051:X 0.000441885
3 *1052:A2 *1052:A1 0
4 *1052:A2 *1055:A 0.000177195
5 *1052:A2 *1055:C 0.000177598
6 *1086:A *1052:A2 0
7 *1090:A *1052:A2 0
*RES
1 *1051:X *1052:A2 44.7895 
*END

*D_NET *35 0.00183122
*CONN
*I *1054:A2 I *D sg13g2_o21ai_1
*I *1055:C I *D sg13g2_or3_1
*I *1053:Y O *D sg13g2_nand4_1
*CAP
1 *1054:A2 0
2 *1055:C 0.000536715
3 *1053:Y 0.000137496
4 *35:8 0.000674211
5 *1055:C *1054:A1 8.01118e-05
6 *1055:C *1055:A 0
7 *1055:C *36:10 0
8 *1055:C *49:82 0
9 *1055:C *57:23 0.000145003
10 *1055:C *57:33 8.00842e-05
11 *35:8 *1053:C 0
12 *35:8 *36:10 0
13 *1051:C *35:8 0
14 *1052:A2 *1055:C 0.000177598
15 *1086:A *1055:C 0
*RES
1 *1053:Y *35:8 21.6274 
2 *35:8 *1055:C 25.3972 
3 *35:8 *1054:A2 20 
*END

*D_NET *36 0.00129205
*CONN
*I *1089:A I *D sg13g2_dlygate4sd3_1
*I *1054:Y O *D sg13g2_o21ai_1
*CAP
1 *1089:A 0
2 *1054:Y 0.000533676
3 *36:10 0.000533676
4 *36:10 *61:8 0
5 *1052:B1 *36:10 0
6 *1055:C *36:10 0
7 *1056:B1 *36:10 0.000209297
8 *1086:A *36:10 1.54008e-05
9 *1090:A *36:10 0
10 *35:8 *36:10 0
*RES
1 *1054:Y *36:10 45.8298 
2 *36:10 *1089:A 40 
*END

*D_NET *37 0.00172311
*CONN
*I *1056:A2 I *D sg13g2_a21oi_1
*I *1055:X O *D sg13g2_or3_1
*CAP
1 *1056:A2 0.000592498
2 *1055:X 0.000592498
3 *1056:A2 *1052:A1 0
4 *1056:A2 *1055:A 0.00052271
5 *1056:A2 *1056:A1 1.54008e-05
6 *1056:A2 *1067:RESET_B 0
7 *1052:B1 *1056:A2 0
8 *1056:B1 *1056:A2 0
9 *1090:A *1056:A2 0
*RES
1 *1055:X *1056:A2 45.9231 
*END

*D_NET *38 0.000289531
*CONN
*I *1058:B I *D sg13g2_and2_1
*I *1057:X O *D sg13g2_xor2_1
*CAP
1 *1058:B 0.000144766
2 *1057:X 0.000144766
3 *1058:B *1057:B 0
4 *1058:B *58:6 0
5 *1071:D *1058:B 0
*RES
1 *1057:X *1058:B 41.6583 
*END

*D_NET *39 0.00159846
*CONN
*I *1060:B I *D sg13g2_xnor2_1
*I *1059:Y O *D sg13g2_nand2_1
*CAP
1 *1060:B 0.000659341
2 *1059:Y 0.000659341
3 *1060:B *1038:C 0
4 *1060:B *1059:A 4.77425e-05
5 *1060:B *1060:A 0
6 *1060:B *1061:B 2.21754e-05
7 *1060:B *1073:RESET_B 0
8 *1060:B *1100:A 0.000209856
*RES
1 *1059:Y *1060:B 47.0555 
*END

*D_NET *40 0.000621945
*CONN
*I *1100:A I *D sg13g2_dlygate4sd3_1
*I *1060:Y O *D sg13g2_xnor2_1
*CAP
1 *1100:A 0.000206044
2 *1060:Y 0.000206044
3 *1100:A *1060:A 0
4 *1100:A *1073:RESET_B 0
5 *1060:B *1100:A 0.000209856
*RES
1 *1060:Y *1100:A 42.4926 
*END

*D_NET *41 0.000728407
*CONN
*I *1063:B I *D sg13g2_xnor2_1
*I *1062:Y O *D sg13g2_nand3_1
*CAP
1 *1063:B 5.08741e-05
2 *1062:Y 0.000273287
3 *41:8 0.000324161
4 *1063:B *1107:A 8.00842e-05
5 *41:8 *1038:A 0
6 *3:10 *41:8 0
*RES
1 *1062:Y *41:8 42.575 
2 *41:8 *1063:B 40.5356 
*END

*D_NET *42 0.000163181
*CONN
*I *1098:A I *D sg13g2_dlygate4sd3_1
*I *1063:Y O *D sg13g2_xnor2_1
*CAP
1 *1098:A 8.15907e-05
2 *1063:Y 8.15907e-05
*RES
1 *1063:Y *1098:A 40.9167 
*END

*D_NET *43 0.00355837
*CONN
*I *1083:A I *D sg13g2_buf_16
*I *1082:A I *D sg13g2_buf_16
*I *1081:X O *D sg13g2_buf_16
*CAP
1 *1083:A 0.000780827
2 *1082:A 0
3 *1081:X 0.000233564
4 *43:33 0.000840715
5 *43:15 0.000758847
6 *43:6 0.000932524
7 *1083:A *1102:A 0
8 *1083:A *49:56 0
9 *1083:A *79:12 0
10 *43:6 *1077:RESET_B 0
11 *43:15 *44:51 0
12 *43:33 *44:51 0
13 *1044:A2 *43:33 1.18941e-05
14 *1044:B1 *43:6 0
15 *22:40 *1083:A 0
16 *25:8 *43:15 0
*RES
1 *1081:X *43:6 21.6171 
2 *43:6 *43:15 26.6023 
3 *43:15 *1082:A 40 
4 *1081:X *43:33 40.5356 
5 *43:33 *1083:A 48.0031 
*END

*D_NET *44 0.0119463
*CONN
*I *1077:CLK I *D sg13g2_dfrbpq_1
*I *1075:CLK I *D sg13g2_dfrbpq_1
*I *1073:CLK I *D sg13g2_dfrbpq_1
*I *1071:CLK I *D sg13g2_dfrbpq_1
*I *1082:X O *D sg13g2_buf_16
*CAP
1 *1077:CLK 0
2 *1075:CLK 5.43637e-05
3 *1073:CLK 0
4 *1071:CLK 0.000182915
5 *1082:X 0
6 *44:51 0.00147777
7 *44:22 0.000734409
8 *44:16 0.00171048
9 *44:8 0.00177384
10 *44:6 0.00203825
11 *1071:CLK *1071:RESET_B 0
12 *1071:CLK *1101:A 0
13 *1071:CLK *47:12 0
14 *1071:CLK *47:23 0
15 *1075:CLK *1097:A 0
16 *44:8 *1097:A 0
17 *44:8 *1108:A 0
18 *44:16 *1038:C 0
19 *44:16 *1038:A 0
20 *44:16 *71:10 0
21 *44:16 *77:21 0
22 *44:16 *77:31 0.00012816
23 *44:22 *58:14 0.000987114
24 *44:22 *58:27 0.000958532
25 *44:22 *73:8 0
26 *44:51 *1044:A1 0
27 *44:51 *1108:A 0
28 *44:51 *49:25 0
29 *44:51 *58:40 0
30 *1044:A2 *44:51 0
31 *1096:A *44:51 0.000533713
32 *22:12 *44:51 0.000555408
33 *22:23 *44:51 0.000605303
34 *22:40 *44:51 0.000126358
35 *24:8 *44:16 7.9706e-05
36 *24:14 *44:8 0
37 *24:14 *44:16 0
38 *24:14 *44:51 0
39 *43:15 *44:51 0
40 *43:33 *44:51 0
*RES
1 *1082:X *44:6 40 
2 *44:6 *44:8 5.2942 
3 *44:8 *44:16 29.5172 
4 *44:16 *44:22 49.0022 
5 *44:22 *1071:CLK 21.8334 
6 *44:16 *1073:CLK 20 
7 *44:8 *1075:CLK 40.5356 
8 *44:6 *44:51 35.6354 
9 *44:51 *1077:CLK 20 
*END

*D_NET *45 0.00657552
*CONN
*I *1069:CLK I *D sg13g2_dfrbpq_1
*I *1067:CLK I *D sg13g2_dfrbpq_1
*I *1065:CLK I *D sg13g2_dfrbpq_1
*I *1079:CLK I *D sg13g2_dfrbpq_1
*I *1083:X O *D sg13g2_buf_16
*CAP
1 *1069:CLK 0.000247443
2 *1067:CLK 0
3 *1065:CLK 0
4 *1079:CLK 0.000587029
5 *1083:X 0.000208151
6 *45:30 0.00135071
7 *45:19 0.00135569
8 *45:8 0.00104761
9 *1069:CLK *1069:RESET_B 0
10 *1069:CLK *1085:A 0.000112826
11 *1079:CLK *64:21 0.000235075
12 *1079:CLK *79:12 0.000397624
13 *45:8 *49:56 0
14 *45:19 *64:21 0.000586179
15 *45:19 *79:57 0
16 *45:30 *1091:A 0
17 *45:30 *49:67 0
18 *45:30 *49:82 0
19 *45:30 *57:8 0
20 *45:30 *63:8 0
21 *45:30 *79:57 0
22 *45:30 *81:21 0
23 *45:30 *81:45 0
24 *17:14 *45:30 0
25 *29:24 *45:19 0
26 *29:24 *45:30 0
27 *30:8 *45:19 0
28 *31:10 *45:8 0
29 *33:10 *45:30 0.000447182
*RES
1 *1083:X *45:8 41.8649 
2 *45:8 *1079:CLK 46.0358 
3 *45:8 *45:19 3.0694 
4 *45:19 *1065:CLK 40 
5 *45:19 *45:30 32.7102 
6 *45:30 *1067:CLK 20 
7 *45:30 *1069:CLK 22.8634 
*END

*D_NET *46 0.00111007
*CONN
*I *1079:RESET_B I *D sg13g2_dfrbpq_1
*I *1080:L_HI O *D sg13g2_tiehi
*CAP
1 *1079:RESET_B 0.000555034
2 *1080:L_HI 0.000555034
3 *1079:RESET_B *1044:A1 0
4 *1079:RESET_B *1109:A 0
5 *1079:RESET_B *67:21 0
6 *1079:RESET_B *76:10 0
7 *1079:RESET_B *79:12 0
*RES
1 *1080:L_HI *1079:RESET_B 45.253 
*END

*D_NET *47 0.00858493
*CONN
*I *1038:B I *D sg13g2_nand4_1
*I *1062:A I *D sg13g2_nand3_1
*I *1059:A I *D sg13g2_nand2_1
*I *1057:A I *D sg13g2_xor2_1
*I *1103:X O *D sg13g2_buf_1
*CAP
1 *1038:B 0.000156512
2 *1062:A 6.28783e-05
3 *1059:A 4.66018e-05
4 *1057:A 0
5 *1103:X 0.000331851
6 *47:34 0.000362234
7 *47:23 0.00117126
8 *47:12 0.00342907
9 *47:8 0.00277911
10 *1038:B *1038:C 3.39041e-05
11 *1038:B *1038:A 6.15809e-05
12 *1038:B *1038:D 0
13 *1038:B *58:27 0
14 *1038:B *77:31 2.20966e-05
15 *1059:A *1073:RESET_B 8.00842e-05
16 *47:23 *1038:D 0
17 *47:23 *1057:B 0
18 *47:23 *1106:A 0
19 *47:23 *69:10 0
20 *47:34 *1038:D 0
21 *47:34 *1062:C 0
22 *47:34 *77:31 0
23 *1060:B *1059:A 4.77425e-05
24 *1071:D *47:12 0
25 *1071:D *47:23 0
26 *1071:CLK *47:12 0
27 *1071:CLK *47:23 0
*RES
1 *1103:X *47:8 44.3054 
2 *47:8 *47:12 47.7894 
3 *47:12 *1057:A 20 
4 *47:12 *47:23 29.9086 
5 *47:23 *1059:A 40.5356 
6 *47:23 *47:34 1.339 
7 *47:34 *1062:A 40.5356 
8 *47:34 *1038:B 41.5347 
*END

*D_NET *48 0.00483001
*CONN
*I *1105:A I *D sg13g2_buf_1
*I *1088:A I *D sg13g2_dlygate4sd3_1
*I *1069:Q O *D sg13g2_dfrbpq_1
*CAP
1 *1105:A 0
2 *1088:A 5.13355e-05
3 *1069:Q 0.000306372
4 *48:23 0.0020573
5 *48:8 0.002415
6 *1088:A *82:30 0
7 *48:8 *81:45 0
8 *48:23 *82:30 0
*RES
1 *1069:Q *48:8 43.3475 
2 *48:8 *1088:A 40.5974 
3 *48:8 *48:23 46.1311 
4 *48:23 *1105:A 20 
*END

*D_NET *49 0.00850088
*CONN
*I *1042:A2 I *D sg13g2_o21ai_1
*I *1046:A1 I *D sg13g2_o21ai_1
*I *1054:A1 I *D sg13g2_o21ai_1
*I *1051:B I *D sg13g2_or3_1
*I *1050:A1 I *D sg13g2_o21ai_1
*I *1047:B I *D sg13g2_or3_1
*I *1043:C I *D sg13g2_or3_1
*I *1040:B I *D sg13g2_xnor2_1
*I *1084:X O *D sg13g2_buf_1
*CAP
1 *1042:A2 0
2 *1046:A1 0
3 *1054:A1 0.000169362
4 *1051:B 0
5 *1050:A1 9.25979e-05
6 *1047:B 0.000143738
7 *1043:C 0.000232588
8 *1040:B 0.000118163
9 *1084:X 0.000144866
10 *49:82 0.000451468
11 *49:67 0.000769939
12 *49:56 0.00113186
13 *49:50 0.00133857
14 *49:40 0.0010146
15 *49:25 0.000840307
16 *49:8 0.000601842
17 *1040:B *1077:RESET_B 8.02105e-05
18 *1043:C *1109:A 0
19 *1047:B *1047:A 0.000209422
20 *1050:A1 *57:33 0
21 *1054:A1 *1053:C 0
22 *1054:A1 *57:23 0.000129603
23 *1054:A1 *57:33 1.54008e-05
24 *49:8 *1077:RESET_B 0
25 *49:40 *1042:B1 4.77425e-05
26 *49:50 *1042:B1 1.54008e-05
27 *49:50 *76:10 0
28 *49:50 *79:29 0
29 *49:82 *57:33 8.00842e-05
30 *1040:A *1040:B 8.00842e-05
31 *1040:A *49:25 0
32 *1042:A1 *49:25 0
33 *1042:A1 *49:40 3.23417e-05
34 *1042:A1 *49:50 1.54008e-05
35 *1043:B *1043:C 0
36 *1044:A2 *1043:C 0
37 *1050:A2 *1050:A1 1.54008e-05
38 *1051:C *1054:A1 0
39 *1055:C *1054:A1 8.01118e-05
40 *1055:C *49:82 0
41 *1083:A *49:56 0
42 *1084:A *49:8 0
43 *22:40 *49:25 0
44 *22:40 *49:40 0
45 *23:21 *49:25 0
46 *25:8 *1040:B 0.000181192
47 *25:8 *49:25 0.000127878
48 *27:8 *49:40 0.000180697
49 *29:14 *49:50 6.46834e-05
50 *29:24 *1047:B 0
51 *29:24 *49:50 1.54008e-05
52 *29:24 *49:56 7.99246e-05
53 *32:8 *1054:A1 0
54 *44:51 *49:25 0
55 *45:8 *49:56 0
56 *45:30 *49:67 0
57 *45:30 *49:82 0
*RES
1 *1084:X *49:8 41.1845 
2 *49:8 *1040:B 41.3802 
3 *49:8 *49:25 3.4917 
4 *49:25 *1043:C 42.0497 
5 *49:25 *49:40 22.8943 
6 *49:40 *49:50 46.489 
7 *49:50 *49:56 25.5208 
8 *49:56 *1047:B 41.4008 
9 *49:56 *49:67 4.3054 
10 *49:67 *1050:A1 40.9682 
11 *49:67 *49:82 22.8016 
12 *49:82 *1051:B 20 
13 *49:82 *1054:A1 21.8334 
14 *49:50 *1046:A1 20 
15 *49:40 *1042:A2 20 
*END

*D_NET *50 0.00131249
*CONN
*I *1077:RESET_B I *D sg13g2_dfrbpq_1
*I *1078:L_HI O *D sg13g2_tiehi
*CAP
1 *1077:RESET_B 0.000616138
2 *1078:L_HI 0.000616138
3 *1040:A *1077:RESET_B 0
4 *1040:B *1077:RESET_B 8.02105e-05
5 *1041:B *1077:RESET_B 0
6 *1044:B1 *1077:RESET_B 0
7 *1077:D *1077:RESET_B 0
8 *1084:A *1077:RESET_B 0
9 *43:6 *1077:RESET_B 0
10 *49:8 *1077:RESET_B 0
*RES
1 *1078:L_HI *1077:RESET_B 45.4776 
*END

*D_NET *51 0.00158506
*CONN
*I *1069:RESET_B I *D sg13g2_dfrbpq_1
*I *1070:L_HI O *D sg13g2_tiehi
*CAP
1 *1069:RESET_B 0.000590725
2 *1070:L_HI 0.000590725
3 *1069:RESET_B *1067:RESET_B 0
4 *1069:RESET_B *1069:D 0
5 *1069:RESET_B *1085:A 0
6 *1069:CLK *1069:RESET_B 0
7 *1087:A *1069:RESET_B 0.000403611
*RES
1 *1070:L_HI *1069:RESET_B 46.6744 
*END

*D_NET *52 0.000851972
*CONN
*I *1073:RESET_B I *D sg13g2_dfrbpq_1
*I *1074:L_HI O *D sg13g2_tiehi
*CAP
1 *1073:RESET_B 0.000362072
2 *1074:L_HI 0.000362072
3 *1073:RESET_B *1038:D 0
4 *1073:RESET_B *1062:C 4.77425e-05
5 *1059:A *1073:RESET_B 8.00842e-05
6 *1060:B *1073:RESET_B 0
7 *1073:D *1073:RESET_B 0
8 *1100:A *1073:RESET_B 0
*RES
1 *1074:L_HI *1073:RESET_B 43.9552 
*END

*D_NET *53 0.000762684
*CONN
*I *1067:RESET_B I *D sg13g2_dfrbpq_1
*I *1068:L_HI O *D sg13g2_tiehi
*CAP
1 *1067:RESET_B 0.000381342
2 *1068:L_HI 0.000381342
3 *1067:RESET_B *1067:D 0
4 *1052:B1 *1067:RESET_B 0
5 *1056:A2 *1067:RESET_B 0
6 *1069:RESET_B *1067:RESET_B 0
7 *1087:A *1067:RESET_B 0
*RES
1 *1068:L_HI *1067:RESET_B 43.914 
*END

*D_NET *54 0.000510961
*CONN
*I *1075:RESET_B I *D sg13g2_dfrbpq_1
*I *1076:L_HI O *D sg13g2_tiehi
*CAP
1 *1075:RESET_B 0.000255481
2 *1076:L_HI 0.000255481
3 *1075:RESET_B *1064:B 0
4 *1075:RESET_B *71:10 0
5 *1075:D *1075:RESET_B 0
*RES
1 *1076:L_HI *1075:RESET_B 42.6162 
*END

*D_NET *55 0.00148009
*CONN
*I *1065:RESET_B I *D sg13g2_dfrbpq_1
*I *1066:L_HI O *D sg13g2_tiehi
*CAP
1 *1065:RESET_B 0.00033535
2 *1066:L_HI 0.000219222
3 *55:8 0.000554572
4 *1065:RESET_B *1065:D 0.000370944
5 *1092:A *1065:RESET_B 0
6 *16:10 *55:8 0
7 *22:53 *55:8 0
*RES
1 *1066:L_HI *55:8 42.0806 
2 *55:8 *1065:RESET_B 43.0094 
*END

*D_NET *56 0.000396711
*CONN
*I *1071:RESET_B I *D sg13g2_dfrbpq_1
*I *1072:L_HI O *D sg13g2_tiehi
*CAP
1 *1071:RESET_B 0.000198355
2 *1072:L_HI 0.000198355
3 *1071:RESET_B *1106:A 0
4 *1071:CLK *1071:RESET_B 0
*RES
1 *1072:L_HI *1071:RESET_B 42.1836 
*END

*D_NET *57 0.00382729
*CONN
*I *1051:A I *D sg13g2_or3_1
*I *1050:B1 I *D sg13g2_o21ai_1
*I *1053:A I *D sg13g2_nand4_1
*I *1085:X O *D sg13g2_dlygate4sd3_1
*CAP
1 *1051:A 0
2 *1050:B1 0
3 *1053:A 7.39744e-05
4 *1085:X 0.000363055
5 *57:33 0.000245849
6 *57:23 0.000362862
7 *57:8 0.000554042
8 *1053:A *81:45 0.000235141
9 *57:8 *81:45 0.00119055
10 *1050:A1 *57:33 0
11 *1050:A2 *57:33 1.54008e-05
12 *1054:A1 *57:23 0.000129603
13 *1054:A1 *57:33 1.54008e-05
14 *1055:C *57:23 0.000145003
15 *1055:C *57:33 8.00842e-05
16 *33:10 *57:33 0.000336244
17 *45:30 *57:8 0
18 *49:82 *57:33 8.00842e-05
*RES
1 *1085:X *57:8 45.5414 
2 *57:8 *1053:A 41.0918 
3 *57:8 *57:23 21.5038 
4 *57:23 *57:33 42.6574 
5 *57:33 *1050:B1 20 
6 *57:23 *1051:A 20 
*END

*D_NET *58 0.0116981
*CONN
*I *1058:A I *D sg13g2_and2_1
*I *1036:A I *D sg13g2_inv_1
*I *1064:A I *D sg13g2_and2_1
*I *1061:A I *D sg13g2_and2_1
*I *1104:X O *D sg13g2_buf_1
*CAP
1 *1058:A 0
2 *1036:A 0
3 *1064:A 5.08741e-05
4 *1061:A 3.4601e-05
5 *1104:X 0.00104337
6 *58:40 0.00126755
7 *58:27 0.00187119
8 *58:14 0.00112758
9 *58:10 0.000662639
10 *58:6 0.0011658
11 *1064:A *1064:B 8.00842e-05
12 *58:14 *1038:D 0.000910928
13 *58:14 *1057:B 0.000769377
14 *58:27 *1038:D 0.000768454
15 *58:27 *73:8 0
16 *58:27 *77:21 0
17 *58:27 *77:31 0
18 *1038:B *58:27 0
19 *1058:B *58:6 0
20 *24:14 *58:27 0
21 *24:14 *58:40 0
22 *44:22 *58:14 0.000987114
23 *44:22 *58:27 0.000958532
24 *44:51 *58:40 0
*RES
1 *1104:X *58:6 31.7832 
2 *58:6 *58:10 21.5862 
3 *58:10 *58:14 9.8159 
4 *58:14 *1061:A 40.3193 
5 *58:14 *58:27 8.3327 
6 *58:27 *1064:A 40.5356 
7 *58:27 *58:40 35.1822 
8 *58:40 *1036:A 20 
9 *58:10 *1058:A 40 
*END

*D_NET *59 0.00147525
*CONN
*I *1052:A1 I *D sg13g2_a21oi_1
*I *1086:X O *D sg13g2_dlygate4sd3_1
*CAP
1 *1052:A1 0.0006411
2 *1086:X 0.0006411
3 *1052:A1 *1055:A 4.79124e-05
4 *1052:A2 *1052:A1 0
5 *1052:B1 *1052:A1 0
6 *1056:A2 *1052:A1 0
7 *17:14 *1052:A1 0.000145141
*RES
1 *1086:X *1052:A1 46.3448 
*END

*D_NET *60 0.000382463
*CONN
*I *1067:D I *D sg13g2_dfrbpq_1
*I *1087:X O *D sg13g2_dlygate4sd3_1
*CAP
1 *1067:D 0.000102499
2 *1087:X 0.000102499
3 *1052:B1 *1067:D 0.000177466
4 *1067:RESET_B *1067:D 0
*RES
1 *1087:X *1067:D 41.1845 
*END

*D_NET *61 0.00435271
*CONN
*I *1055:A I *D sg13g2_or3_1
*I *1054:B1 I *D sg13g2_o21ai_1
*I *1088:X O *D sg13g2_dlygate4sd3_1
*CAP
1 *1055:A 0.000365123
2 *1054:B1 9.63203e-05
3 *1088:X 0.000394074
4 *61:8 0.000855517
5 *1054:B1 *81:45 0.000287672
6 *61:8 *81:45 0.0013317
7 *1052:A1 *1055:A 4.79124e-05
8 *1052:A2 *1055:A 0.000177195
9 *1052:B1 *61:8 0
10 *1055:C *1055:A 0
11 *1056:A2 *1055:A 0.00052271
12 *1090:A *1055:A 0.000274491
13 *36:10 *61:8 0
*RES
1 *1088:X *61:8 46.283 
2 *61:8 *1054:B1 41.339 
3 *61:8 *1055:A 44.4496 
*END

*D_NET *62 0.000237837
*CONN
*I *1056:A1 I *D sg13g2_a21oi_1
*I *1089:X O *D sg13g2_dlygate4sd3_1
*CAP
1 *1056:A1 0.000111218
2 *1089:X 0.000111218
3 *1056:A2 *1056:A1 1.54008e-05
*RES
1 *1089:X *1056:A1 41.3802 
*END

*D_NET *63 0.000729694
*CONN
*I *1069:D I *D sg13g2_dfrbpq_1
*I *1090:X O *D sg13g2_dlygate4sd3_1
*CAP
1 *1069:D 0.00016611
2 *1090:X 8.11604e-05
3 *63:8 0.000247271
4 *1052:B1 *1069:D 0
5 *1069:RESET_B *1069:D 0
6 *17:14 *63:8 0.000235153
7 *45:30 *63:8 0
*RES
1 *1090:X *63:8 41.0918 
2 *63:8 *1069:D 41.6171 
*END

*D_NET *64 0.00303901
*CONN
*I *1046:B1 I *D sg13g2_o21ai_1
*I *1047:A I *D sg13g2_or3_1
*I *1091:X O *D sg13g2_dlygate4sd3_1
*CAP
1 *1046:B1 0
2 *1047:A 0.000208074
3 *1091:X 0.000168733
4 *64:21 0.000184704
5 *64:6 0.000561512
6 *1047:B *1047:A 0.000209422
7 *1079:CLK *64:21 0.000235075
8 *29:14 *64:21 1.54008e-05
9 *29:24 *1047:A 0
10 *29:24 *64:21 0.000869914
11 *31:10 *1047:A 0
12 *31:10 *64:6 0
13 *45:19 *64:21 0.000586179
*RES
1 *1091:X *64:6 21.6171 
2 *64:6 *1047:A 22.0497 
3 *64:6 *64:21 44.1303 
4 *64:21 *1046:B1 20 
*END

*D_NET *65 0.000366806
*CONN
*I *1048:A1 I *D sg13g2_a21oi_1
*I *1092:X O *D sg13g2_dlygate4sd3_1
*CAP
1 *1048:A1 0.000135841
2 *1092:X 0.000135841
3 *1048:A1 *1065:D 0
4 *22:40 *1048:A1 7.97574e-05
5 *22:53 *1048:A1 1.53666e-05
*RES
1 *1092:X *1048:A1 41.3802 
*END

*D_NET *66 0.00117373
*CONN
*I *1065:D I *D sg13g2_dfrbpq_1
*I *1093:X O *D sg13g2_dlygate4sd3_1
*CAP
1 *1065:D 0.000401395
2 *1093:X 0.000401395
3 *1048:A1 *1065:D 0
4 *1065:RESET_B *1065:D 0.000370944
5 *22:40 *1065:D 0
6 *22:53 *1065:D 0
7 *29:14 *1065:D 0
*RES
1 *1093:X *1065:D 43.894 
*END

*D_NET *67 0.00132608
*CONN
*I *1043:A I *D sg13g2_or3_1
*I *1042:B1 I *D sg13g2_o21ai_1
*I *1094:X O *D sg13g2_dlygate4sd3_1
*CAP
1 *1043:A 0
2 *1042:B1 7.90678e-05
3 *1094:X 7.00014e-05
4 *67:21 0.0004824
5 *67:6 0.000631469
6 *67:21 *1109:A 0
7 *67:21 *76:10 0
8 *1042:A1 *1042:B1 0
9 *1042:A1 *67:21 0
10 *1079:RESET_B *67:21 0
11 *49:40 *1042:B1 4.77425e-05
12 *49:50 *1042:B1 1.54008e-05
*RES
1 *1094:X *67:6 20.8446 
2 *67:6 *1042:B1 20.7519 
3 *67:6 *67:21 45.1809 
4 *67:21 *1043:A 20 
*END

*D_NET *68 0.00174223
*CONN
*I *1044:A1 I *D sg13g2_a21oi_1
*I *1095:X O *D sg13g2_dlygate4sd3_1
*CAP
1 *1044:A1 0.000734627
2 *1095:X 0.000734627
3 *1044:A1 *1079:D 0.000177438
4 *1044:A1 *76:10 0
5 *1044:A1 *79:12 0
6 *1044:A2 *1044:A1 9.55338e-05
7 *1044:B1 *1044:A1 0
8 *1079:RESET_B *1044:A1 0
9 *44:51 *1044:A1 0
*RES
1 *1095:X *1044:A1 48.3636 
*END

*D_NET *69 0.00288833
*CONN
*I *1101:A I *D sg13g2_dlygate4sd3_1
*I *1106:A I *D sg13g2_buf_1
*I *1062:C I *D sg13g2_nand3_1
*I *1059:B I *D sg13g2_nand2_1
*I *1071:Q O *D sg13g2_dfrbpq_1
*CAP
1 *1101:A 0.000222691
2 *1106:A 0.000582702
3 *1062:C 0.000177154
4 *1059:B 0
5 *1071:Q 0
6 *69:34 0.000896101
7 *69:10 0.000524194
8 *69:4 0.000437749
9 *1062:C *77:31 0
10 *1106:A *1057:B 0
11 *1071:RESET_B *1106:A 0
12 *1071:CLK *1101:A 0
13 *1073:RESET_B *1062:C 4.77425e-05
14 *3:10 *1106:A 0
15 *47:23 *1106:A 0
16 *47:23 *69:10 0
17 *47:34 *1062:C 0
*RES
1 *1071:Q *69:4 20 
2 *69:4 *69:10 23.5741 
3 *69:10 *1059:B 40 
4 *69:10 *1062:C 41.7304 
5 *69:4 *69:34 21.0918 
6 *69:34 *1106:A 46.695 
7 *69:34 *1101:A 42.4823 
*END

*D_NET *70 0.000456811
*CONN
*I *1079:D I *D sg13g2_dfrbpq_1
*I *1096:X O *D sg13g2_dlygate4sd3_1
*CAP
1 *1079:D 0.000139686
2 *1096:X 0.000139686
3 *1044:A1 *1079:D 0.000177438
4 *1044:A2 *1079:D 0
*RES
1 *1096:X *1079:D 41.5347 
*END

*D_NET *71 0.00226162
*CONN
*I *1063:A I *D sg13g2_xnor2_1
*I *1038:A I *D sg13g2_nand4_1
*I *1097:X O *D sg13g2_dlygate4sd3_1
*CAP
1 *1063:A 0
2 *1038:A 0.000203403
3 *1097:X 0.00077139
4 *71:10 0.000974793
5 *1038:A *77:31 0.000235055
6 *71:10 *1097:A 0
7 *1038:B *1038:A 6.15809e-05
8 *1075:RESET_B *71:10 0
9 *24:8 *1038:A 1.54008e-05
10 *41:8 *1038:A 0
11 *44:16 *1038:A 0
12 *44:16 *71:10 0
*RES
1 *1097:X *71:10 47.4366 
2 *71:10 *1038:A 42.1218 
3 *71:10 *1063:A 40 
*END

*D_NET *72 0.00045921
*CONN
*I *1064:B I *D sg13g2_and2_1
*I *1098:X O *D sg13g2_dlygate4sd3_1
*CAP
1 *1064:B 0.000189563
2 *1098:X 0.000189563
3 *1064:A *1064:B 8.00842e-05
4 *1075:RESET_B *1064:B 0
5 *1075:D *1064:B 0
*RES
1 *1098:X *1064:B 41.9982 
*END

*D_NET *73 0.00179859
*CONN
*I *1038:C I *D sg13g2_nand4_1
*I *1060:A I *D sg13g2_xnor2_1
*I *1099:X O *D sg13g2_dlygate4sd3_1
*CAP
1 *1038:C 0.000345314
2 *1060:A 0.000262063
3 *1099:X 0.000170128
4 *73:10 0.000607377
5 *73:8 0.000170128
6 *1038:C *1038:D 0.000209676
7 *1038:C *77:21 0
8 *73:8 *77:21 0
9 *1038:B *1038:C 3.39041e-05
10 *1060:B *1038:C 0
11 *1060:B *1060:A 0
12 *1100:A *1060:A 0
13 *24:8 *1038:C 0
14 *44:16 *1038:C 0
15 *44:22 *73:8 0
16 *58:27 *73:8 0
*RES
1 *1099:X *73:8 42.0806 
2 *73:8 *73:10 20 
3 *73:10 *1060:A 23.0797 
4 *73:10 *1038:C 23.6977 
*END

*D_NET *74 0.000576033
*CONN
*I *1061:B I *D sg13g2_and2_1
*I *1100:X O *D sg13g2_dlygate4sd3_1
*CAP
1 *1061:B 0.000276929
2 *1100:X 0.000276929
3 *1060:B *1061:B 2.21754e-05
4 *1073:D *1061:B 0
*RES
1 *1100:X *1061:B 43.1621 
*END

*D_NET *75 0.00460267
*CONN
*I *1038:D I *D sg13g2_nand4_1
*I *1057:B I *D sg13g2_xor2_1
*I *1101:X O *D sg13g2_dlygate4sd3_1
*CAP
1 *1038:D 0.000645715
2 *1057:B 0.000286346
3 *1101:X 0
4 *75:6 0.000932061
5 *1038:B *1038:D 0
6 *1038:C *1038:D 0.000209676
7 *1058:B *1057:B 0
8 *1071:D *1057:B 8.01116e-05
9 *1073:RESET_B *1038:D 0
10 *1106:A *1057:B 0
11 *47:23 *1038:D 0
12 *47:23 *1057:B 0
13 *47:34 *1038:D 0
14 *58:14 *1038:D 0.000910928
15 *58:14 *1057:B 0.000769377
16 *58:27 *1038:D 0.000768454
*RES
1 *1101:X *75:6 40 
2 *75:6 *1057:B 44.0994 
3 *75:6 *1038:D 49.167 
*END

*D_NET *76 0.00299475
*CONN
*I *1037:A I *D sg13g2_inv_1
*I *1102:X O *D sg13g2_dlygate4sd3_1
*CAP
1 *1037:A 0.000112307
2 *1102:X 0.000746519
3 *76:10 0.000858826
4 *76:10 *1102:A 0
5 *76:10 *79:12 0.000209549
6 *76:10 *79:29 0
7 *1042:A1 *76:10 0.000698212
8 *1043:B *1037:A 0
9 *1044:A1 *76:10 0
10 *1044:A2 *1037:A 0
11 *1079:RESET_B *76:10 0
12 *1084:A *1037:A 0
13 *23:8 *1037:A 8.02276e-05
14 *23:21 *76:10 0.000289113
15 *49:50 *76:10 0
16 *67:21 *76:10 0
*RES
1 *1102:X *76:10 48.24 
2 *76:10 *1037:A 41.1845 
*END

*D_NET *77 0.00267084
*CONN
*I *1107:A I *D sg13g2_buf_1
*I *1062:B I *D sg13g2_nand3_1
*I *1099:A I *D sg13g2_dlygate4sd3_1
*I *1073:Q O *D sg13g2_dfrbpq_1
*CAP
1 *1107:A 0.000205673
2 *1062:B 0
3 *1099:A 0.000146708
4 *1073:Q 2.77263e-05
5 *77:31 0.000301001
6 *77:21 0.000928289
7 *77:6 0.000596049
8 *1038:B *77:31 2.20966e-05
9 *1038:C *77:21 0
10 *1038:A *77:31 0.000235055
11 *1062:C *77:31 0
12 *1063:B *1107:A 8.00842e-05
13 *44:16 *77:21 0
14 *44:16 *77:31 0.00012816
15 *47:34 *77:31 0
16 *58:27 *77:21 0
17 *58:27 *77:31 0
18 *73:8 *77:21 0
*RES
1 *1073:Q *77:6 20.3502 
2 *77:6 *1099:A 21.6171 
3 *77:6 *77:21 44.3466 
4 *77:21 *77:31 43.2445 
5 *77:31 *1062:B 20 
6 *77:21 *1107:A 22.266 
*END

*D_NET *78 0.00153036
*CONN
*I *1108:A I *D sg13g2_buf_1
*I *1097:A I *D sg13g2_dlygate4sd3_1
*I *1075:Q O *D sg13g2_dfrbpq_1
*CAP
1 *1108:A 0.00035825
2 *1097:A 0.00040693
3 *1075:Q 0
4 *78:6 0.00076518
5 *1075:CLK *1097:A 0
6 *3:10 *1097:A 0
7 *3:10 *1108:A 0
8 *44:8 *1097:A 0
9 *44:8 *1108:A 0
10 *44:51 *1108:A 0
11 *71:10 *1097:A 0
*RES
1 *1075:Q *78:6 40 
2 *78:6 *1097:A 44.5629 
3 *78:6 *1108:A 44.223 
*END

*D_NET *79 0.00873863
*CONN
*I *1053:D I *D sg13g2_nand4_1
*I *1049:C I *D sg13g2_nand3_1
*I *1045:B I *D sg13g2_nand2_1
*I *1109:A I *D sg13g2_buf_1
*I *1102:A I *D sg13g2_dlygate4sd3_1
*I *1077:Q O *D sg13g2_dfrbpq_1
*CAP
1 *1053:D 0.000137986
2 *1049:C 3.03288e-05
3 *1045:B 3.22897e-05
4 *1109:A 0.000608779
5 *1102:A 0.000269559
6 *1077:Q 0.000391261
7 *79:57 0.000743544
8 *79:42 0.000830616
9 *79:29 0.00101454
10 *79:14 0.000452222
11 *79:12 0.000391261
12 *1049:C *1049:B 4.77425e-05
13 *1053:D *1049:A 0
14 *1053:D *1053:C 0.000213373
15 *1053:D *80:39 7.51285e-05
16 *1053:D *81:21 0
17 *1053:D *81:32 0
18 *79:29 *80:6 0
19 *79:42 *80:17 0.000235075
20 *79:57 *1091:A 0
21 *79:57 *80:17 0.000127825
22 *79:57 *80:28 0.0012986
23 *79:57 *80:39 0.000373627
24 *79:57 *81:21 0
25 *1043:C *1109:A 0
26 *1044:A1 *79:12 0
27 *1044:A2 *1109:A 0
28 *1079:RESET_B *1109:A 0
29 *1079:RESET_B *79:12 0
30 *1079:CLK *79:12 0.000397624
31 *1083:A *1102:A 0
32 *1083:A *79:12 0
33 *22:40 *1109:A 0
34 *22:40 *79:12 0
35 *22:40 *79:42 0
36 *22:40 *79:57 0
37 *27:8 *1109:A 0.000287415
38 *29:14 *1045:B 1.54008e-05
39 *31:10 *79:57 0.000554894
40 *45:19 *79:57 0
41 *45:30 *79:57 0
42 *49:50 *79:29 0
43 *67:21 *1109:A 0
44 *76:10 *1102:A 0
45 *76:10 *79:12 0.000209549
46 *76:10 *79:29 0
*RES
1 *1077:Q *79:12 44.326 
2 *79:12 *79:14 20 
3 *79:14 *1102:A 22.7501 
4 *79:14 *79:29 21.8334 
5 *79:29 *1109:A 45.5826 
6 *79:29 *79:42 2.3278 
7 *79:42 *1045:B 40.3193 
8 *79:42 *79:57 8.8992 
9 *79:57 *1049:C 40.3193 
10 *79:57 *1053:D 41.6583 
*END

*D_NET *80 0.00505908
*CONN
*I *1053:C I *D sg13g2_nand4_1
*I *1049:B I *D sg13g2_nand3_1
*I *1110:A I *D sg13g2_buf_1
*I *1045:A I *D sg13g2_nand2_1
*I *1094:A I *D sg13g2_dlygate4sd3_1
*I *1079:Q O *D sg13g2_dfrbpq_1
*CAP
1 *1053:C 0.000158611
2 *1049:B 3.61884e-05
3 *1110:A 0.000155424
4 *1045:A 0
5 *1094:A 2.9025e-05
6 *1079:Q 0.000145295
7 *80:39 0.000370223
8 *80:28 0.000869233
9 *80:17 0.000643891
10 *80:6 0.000279826
11 *1053:C *81:32 0
12 *1049:C *1049:B 4.77425e-05
13 *1053:D *1053:C 0.000213373
14 *1053:D *80:39 7.51285e-05
15 *1054:A1 *1053:C 0
16 *22:53 *1053:C 0
17 *22:53 *80:28 0
18 *22:53 *80:39 0
19 *29:14 *80:6 0
20 *35:8 *1053:C 0
21 *79:29 *80:6 0
22 *79:42 *80:17 0.000235075
23 *79:57 *80:17 0.000127825
24 *79:57 *80:28 0.0012986
25 *79:57 *80:39 0.000373627
*RES
1 *1079:Q *80:6 21.4008 
2 *80:6 *1094:A 20.3502 
3 *80:6 *80:17 21.5862 
4 *80:17 *1045:A 40 
5 *80:17 *80:28 6.5714 
6 *80:28 *1110:A 41.6171 
7 *80:28 *80:39 2.0806 
8 *80:39 *1049:B 40.5356 
9 *80:39 *1053:C 41.8746 
*END

*D_NET *81 0.00552338
*CONN
*I *1111:A I *D sg13g2_buf_1
*I *1053:B I *D sg13g2_nand4_1
*I *1049:A I *D sg13g2_nand3_1
*I *1091:A I *D sg13g2_dlygate4sd3_1
*I *1065:Q O *D sg13g2_dfrbpq_1
*CAP
1 *1111:A 0
2 *1053:B 0
3 *1049:A 2.62019e-05
4 *1091:A 0.000195079
5 *1065:Q 0.000109232
6 *81:45 0.000692795
7 *81:32 0.000799935
8 *81:21 0.000242055
9 *81:8 0.000413025
10 *81:45 *82:8 0
11 *1050:A2 *81:8 0
12 *1053:C *81:32 0
13 *1053:A *81:45 0.000235141
14 *1053:D *1049:A 0
15 *1053:D *81:21 0
16 *1053:D *81:32 0
17 *1054:B1 *81:45 0.000287672
18 *22:53 *81:32 0
19 *22:53 *81:45 0
20 *31:10 *1091:A 0
21 *32:8 *81:8 0
22 *45:30 *1091:A 0
23 *45:30 *81:21 0
24 *45:30 *81:45 0
25 *48:8 *81:45 0
26 *57:8 *81:45 0.00119055
27 *61:8 *81:45 0.0013317
28 *79:57 *1091:A 0
29 *79:57 *81:21 0
*RES
1 *1065:Q *81:8 41.1845 
2 *81:8 *1091:A 41.9055 
3 *81:8 *81:21 1.0918 
4 *81:21 *1049:A 40.3193 
5 *81:21 *81:32 1.0918 
6 *81:32 *1053:B 40 
7 *81:32 *81:45 31.7626 
8 *81:45 *1111:A 20 
*END

*D_NET *82 0.00336592
*CONN
*I *1112:A I *D sg13g2_buf_1
*I *1085:A I *D sg13g2_dlygate4sd3_1
*I *1067:Q O *D sg13g2_dfrbpq_1
*CAP
1 *1112:A 0
2 *1085:A 0.000225349
3 *1067:Q 0.000182318
4 *82:30 0.00121888
5 *82:24 0.00121888
6 *82:8 0.000407667
7 *1069:RESET_B *1085:A 0
8 *1069:CLK *1085:A 0.000112826
9 *1088:A *82:30 0
10 *48:23 *82:30 0
11 *81:45 *82:8 0
*RES
1 *1067:Q *82:8 42.3278 
2 *82:8 *1085:A 42.4823 
3 *1067:Q *82:24 40 
4 *82:24 *82:30 35.0689 
5 *82:30 *1112:A 20 
*END
