*SPEF "ieee 1481-1999"
*DESIGN "counter_top"
*DATE "13:20:55 Monday August 17, 2026"
*VENDOR "The OpenROAD Project"
*PROGRAM "OpenROAD"
*VERSION "26Q1-1024-gdcf36133a"
*DESIGN_FLOW "NAME_SCOPE LOCAL" "PIN_CAP NONE"
*DIVIDER /
*DELIMITER :
*BUS_DELIMITER []
*T_UNIT 1 NS
*C_UNIT 1 PF
*R_UNIT 1 OHM
*L_UNIT 1 HENRY

*NAME_MAP
*3 clock_i
*4 counter_value_o[0]
*5 counter_value_o[1]
*6 counter_value_o[2]
*7 counter_value_o[3]
*8 counter_value_o[4]
*9 counter_value_o[5]
*10 counter_value_o[6]
*11 counter_value_o[7]
*12 enable_i
*13 reset_n_i
*14 _000_
*15 _001_
*16 _002_
*17 _003_
*18 _004_
*19 _005_
*20 _006_
*21 _007_
*22 _008_
*23 _009_
*24 _010_
*25 _011_
*26 _012_
*27 _013_
*28 _014_
*29 _015_
*30 _016_
*31 _017_
*32 _018_
*33 _019_
*34 _020_
*35 _021_
*36 _022_
*37 _023_
*38 _024_
*39 _025_
*40 _026_
*41 _027_
*42 _028_
*43 _029_
*44 _030_
*45 clknet_0_clock_i
*46 clknet_1_0__leaf_clock_i
*47 clknet_1_1__leaf_clock_i
*48 net
*49 net1
*50 net10
*51 net11
*52 net12
*53 net13
*54 net14
*55 net15
*56 net16
*57 net17
*58 net18
*59 net19
*60 net2
*61 net20
*62 net21
*63 net22
*64 net23
*65 net24
*66 net25
*67 net26
*68 net27
*69 net28
*70 net29
*71 net3
*72 net30
*73 net31
*74 net32
*75 net33
*76 net34
*77 net35
*78 net36
*79 net37
*80 net38
*81 net39
*82 net4
*83 net40
*84 net41
*85 net42
*86 net43
*87 net5
*88 net6
*89 net7
*90 net8
*91 net9
*92 FILLER_0_106
*93 FILLER_0_113
*94 FILLER_0_120
*95 FILLER_0_127
*96 FILLER_0_13
*97 FILLER_0_134
*98 FILLER_0_141
*99 FILLER_0_148
*100 FILLER_0_155
*101 FILLER_0_162
*102 FILLER_0_169
*103 FILLER_0_176
*104 FILLER_0_183
*105 FILLER_0_190
*106 FILLER_0_197
*107 FILLER_0_20
*108 FILLER_0_204
*109 FILLER_0_211
*110 FILLER_0_218
*111 FILLER_0_225
*112 FILLER_0_230
*113 FILLER_0_237
*114 FILLER_0_244
*115 FILLER_0_251
*116 FILLER_0_258
*117 FILLER_0_265
*118 FILLER_0_272
*119 FILLER_0_279
*120 FILLER_0_286
*121 FILLER_0_29
*122 FILLER_0_292
*123 FILLER_0_299
*124 FILLER_0_303
*125 FILLER_0_313
*126 FILLER_0_320
*127 FILLER_0_327
*128 FILLER_0_334
*129 FILLER_0_341
*130 FILLER_0_348
*131 FILLER_0_355
*132 FILLER_0_36
*133 FILLER_0_362
*134 FILLER_0_369
*135 FILLER_0_376
*136 FILLER_0_383
*137 FILLER_0_390
*138 FILLER_0_43
*139 FILLER_0_50
*140 FILLER_0_57
*141 FILLER_0_6
*142 FILLER_0_64
*143 FILLER_0_71
*144 FILLER_0_78
*145 FILLER_0_85
*146 FILLER_0_92
*147 FILLER_0_99
*148 FILLER_1_0
*149 FILLER_1_159
*150 FILLER_1_161
*151 FILLER_1_320
*152 FILLER_1_324
*153 FILLER_1_387
*154 FILLER_1_391
*155 FILLER_1_7
*156 FILLER_1_93
*157 FILLER_2_0
*158 FILLER_2_108
*159 FILLER_2_115
*160 FILLER_2_122
*161 FILLER_2_129
*162 FILLER_2_136
*163 FILLER_2_14
*164 FILLER_2_140
*165 FILLER_2_145
*166 FILLER_2_153
*167 FILLER_2_157
*168 FILLER_2_175
*169 FILLER_2_181
*170 FILLER_2_188
*171 FILLER_2_195
*172 FILLER_2_202
*173 FILLER_2_209
*174 FILLER_2_21
*175 FILLER_2_216
*176 FILLER_2_222
*177 FILLER_2_229
*178 FILLER_2_236
*179 FILLER_2_245
*180 FILLER_2_25
*181 FILLER_2_252
*182 FILLER_2_259
*183 FILLER_2_266
*184 FILLER_2_273
*185 FILLER_2_277
*186 FILLER_2_290
*187 FILLER_2_297
*188 FILLER_2_304
*189 FILLER_2_311
*190 FILLER_2_318
*191 FILLER_2_325
*192 FILLER_2_335
*193 FILLER_2_342
*194 FILLER_2_349
*195 FILLER_2_35
*196 FILLER_2_356
*197 FILLER_2_363
*198 FILLER_2_374
*199 FILLER_2_382
*200 FILLER_2_389
*201 FILLER_2_391
*202 FILLER_2_42
*203 FILLER_2_49
*204 FILLER_2_56
*205 FILLER_2_63
*206 FILLER_2_7
*207 FILLER_2_70
*208 FILLER_2_76
*209 FILLER_2_83
*210 FILLER_2_90
*211 FILLER_2_92
*212 FILLER_3_107
*213 FILLER_3_114
*214 FILLER_3_13
*215 FILLER_3_164
*216 FILLER_3_171
*217 FILLER_3_178
*218 FILLER_3_185
*219 FILLER_3_192
*220 FILLER_3_20
*221 FILLER_3_237
*222 FILLER_3_244
*223 FILLER_3_251
*224 FILLER_3_258
*225 FILLER_3_300
*226 FILLER_3_319
*227 FILLER_3_326
*228 FILLER_3_333
*229 FILLER_3_34
*230 FILLER_3_340
*231 FILLER_3_347
*232 FILLER_3_354
*233 FILLER_3_361
*234 FILLER_3_368
*235 FILLER_3_375
*236 FILLER_3_382
*237 FILLER_3_389
*238 FILLER_3_391
*239 FILLER_3_41
*240 FILLER_3_48
*241 FILLER_3_55
*242 FILLER_3_6
*243 FILLER_3_62
*244 FILLER_3_69
*245 FILLER_3_76
*246 FILLER_3_83
*247 FILLER_4_0
*248 FILLER_4_103
*249 FILLER_4_110
*250 FILLER_4_135
*251 FILLER_4_142
*252 FILLER_4_170
*253 FILLER_4_243
*254 FILLER_4_245
*255 FILLER_4_279
*256 FILLER_4_327
*257 FILLER_4_391
*258 FILLER_4_7
*259 FILLER_4_89
*260 FILLER_5_0
*261 FILLER_5_104
*262 FILLER_5_11
*263 FILLER_5_111
*264 FILLER_5_115
*265 FILLER_5_123
*266 FILLER_5_130
*267 FILLER_5_137
*268 FILLER_5_144
*269 FILLER_5_151
*270 FILLER_5_158
*271 FILLER_5_165
*272 FILLER_5_183
*273 FILLER_5_19
*274 FILLER_5_190
*275 FILLER_5_197
*276 FILLER_5_204
*277 FILLER_5_211
*278 FILLER_5_215
*279 FILLER_5_220
*280 FILLER_5_227
*281 FILLER_5_234
*282 FILLER_5_241
*283 FILLER_5_248
*284 FILLER_5_255
*285 FILLER_5_262
*286 FILLER_5_269
*287 FILLER_5_279
*288 FILLER_5_28
*289 FILLER_5_286
*290 FILLER_5_293
*291 FILLER_5_300
*292 FILLER_5_307
*293 FILLER_5_314
*294 FILLER_5_321
*295 FILLER_5_339
*296 FILLER_5_346
*297 FILLER_5_353
*298 FILLER_5_360
*299 FILLER_5_367
*300 FILLER_5_371
*301 FILLER_5_38
*302 FILLER_5_387
*303 FILLER_5_391
*304 FILLER_5_45
*305 FILLER_5_52
*306 FILLER_5_59
*307 FILLER_5_63
*308 FILLER_5_7
*309 FILLER_5_75
*310 FILLER_5_83
*311 FILLER_5_90
*312 FILLER_5_97
*313 _063_
*314 _064_
*315 _065_
*316 _066_
*317 _067_
*318 _068_
*319 _069_
*320 _070_
*321 _071_
*322 _072_
*323 _073_
*324 _074_
*325 _075_
*326 _076_
*327 _077_
*328 _078_
*329 _079_
*330 _080_
*331 _081_
*332 _082_
*333 _083_
*334 _084_
*335 _085_
*336 _086_
*337 _087_
*338 _088_
*339 _089_
*340 _090_
*341 _091_
*342 _092_
*343 _093_
*344 _094_
*345 _094__23
*346 _094__24
*347 _094__39
*348 _094__40
*349 _095_
*350 _095__27
*351 _095__28
*352 _095__43
*353 _095__44
*354 _096_
*355 _096__15
*356 _096__16
*357 _096__31
*358 _096__32
*359 _097_
*360 _097__17
*361 _097__18
*362 _097__33
*363 _097__34
*364 _098_
*365 _098__25
*366 _098__26
*367 _098__41
*368 _098__42
*369 _099_
*370 _099__21
*371 _099__22
*372 _099__37
*373 _099__38
*374 _100_
*375 _100__13
*376 _100__14
*377 _100__29
*378 _100__30
*379 _101_
*380 _101__19
*381 _101__20
*382 _101__35
*383 _101__36
*384 clkbuf_0_clock_i
*385 clkbuf_1_0__f_clock_i
*386 clkbuf_1_1__f_clock_i
*387 fanout11
*388 fanout12
*389 input1
*390 input2
*391 output10
*392 output3
*393 output4
*394 output5
*395 output6
*396 output7
*397 output8
*398 output9

*PORTS
clock_i I
counter_value_o[0] O
counter_value_o[1] O
counter_value_o[2] O
counter_value_o[3] O
counter_value_o[4] O
counter_value_o[5] O
counter_value_o[6] O
counter_value_o[7] O
enable_i I
reset_n_i I

*D_NET *3 0.010346
*CONN
*P clock_i I
*I *384:A I *D sg13g2_hv_buf_16
*CAP
1 clock_i 0.00391631
2 *384:A 0
3 *3:12 0.00125669
4 *3:6 0.00517299
5 *3:12 *379:CLK 0
*RES
1 clock_i *3:6 51.1189 
2 *3:6 *3:12 34.4818 
3 *3:12 *384:A 20 
*END

*D_NET *4 0.00281473
*CONN
*P counter_value_o[0] O
*I *392:X O *D sg13g2_hv_buf_1
*CAP
1 counter_value_o[0] 0.00140736
2 *392:X 0.00140736
3 counter_value_o[0] *317:A 0
4 counter_value_o[0] *317:B 0
5 counter_value_o[0] *392:A 0
*RES
1 *392:X counter_value_o[0] 37.4431 
*END

*D_NET *5 0.00279355
*CONN
*P counter_value_o[1] O
*I *393:X O *D sg13g2_hv_buf_1
*CAP
1 counter_value_o[1] 0.00139677
2 *393:X 0.00139677
3 counter_value_o[1] *393:A 0
*RES
1 *393:X counter_value_o[1] 37.4431 
*END

*D_NET *6 0.00279355
*CONN
*P counter_value_o[2] O
*I *394:X O *D sg13g2_hv_buf_1
*CAP
1 counter_value_o[2] 0.00139677
2 *394:X 0.00139677
3 counter_value_o[2] *394:A 0
*RES
1 *394:X counter_value_o[2] 37.4431 
*END

*D_NET *7 0.00279844
*CONN
*P counter_value_o[3] O
*I *395:X O *D sg13g2_hv_buf_1
*CAP
1 counter_value_o[3] 0.00139922
2 *395:X 0.00139922
3 counter_value_o[3] *395:A 0
*RES
1 *395:X counter_value_o[3] 37.4431 
*END

*D_NET *8 0.00277914
*CONN
*P counter_value_o[4] O
*I *396:X O *D sg13g2_hv_buf_1
*CAP
1 counter_value_o[4] 0.00138957
2 *396:X 0.00138957
3 counter_value_o[4] *396:A 0
*RES
1 *396:X counter_value_o[4] 37.4431 
*END

*D_NET *9 0.00286457
*CONN
*P counter_value_o[5] O
*I *397:X O *D sg13g2_hv_buf_1
*CAP
1 counter_value_o[5] 0.00143228
2 *397:X 0.00143228
3 counter_value_o[5] *397:A 0
*RES
1 *397:X counter_value_o[5] 37.9375 
*END

*D_NET *10 0.00274833
*CONN
*P counter_value_o[6] O
*I *398:X O *D sg13g2_hv_buf_1
*CAP
1 counter_value_o[6] 0.00137417
2 *398:X 0.00137417
3 counter_value_o[6] *91:41 0
*RES
1 *398:X counter_value_o[6] 37.134 
*END

*D_NET *11 0.00278871
*CONN
*P counter_value_o[7] O
*I *391:X O *D sg13g2_hv_buf_1
*CAP
1 counter_value_o[7] 0.00139435
2 *391:X 0.00139435
3 counter_value_o[7] *391:A 0
*RES
1 *391:X counter_value_o[7] 37.5151 
*END

*D_NET *12 0.0017077
*CONN
*P enable_i I
*I *389:A I *D sg13g2_hv_buf_1
*CAP
1 enable_i 0.000853848
2 *389:A 0
3 *12:9 0.000853848
*RES
1 enable_i *12:9 30.6193 
2 *12:9 *389:A 20 
*END

*D_NET *13 0.00085866
*CONN
*P reset_n_i I
*I *390:A I *D sg13g2_hv_buf_1
*CAP
1 reset_n_i 0.00042933
2 *390:A 0.00042933
3 *390:A *60:10 0
*RES
1 reset_n_i *390:A 45.2118 
*END

*D_NET *14 0.00189623
*CONN
*I *344:D I *D sg13g2_hv_sdfbbp_1
*I *335:Y O *D sg13g2_hv_nand2b_1
*CAP
1 *344:D 0.000948116
2 *335:Y 0.000948116
3 *344:D *344:SCE 0
4 *344:D *76:10 0
5 *344:D *88:8 0
*RES
1 *335:Y *344:D 30.7944 
*END

*D_NET *15 0.000581298
*CONN
*I *349:D I *D sg13g2_hv_sdfbbp_1
*I *339:X O *D sg13g2_hv_mux2_1
*CAP
1 *349:D 4.467e-05
2 *339:X 0.000225892
3 *15:8 0.000270562
4 *349:D *349:SCE 4.01739e-05
5 *15:8 *91:8 0
*RES
1 *339:X *15:8 42.8222 
2 *15:8 *349:D 20.4841 
*END

*D_NET *16 0.00143648
*CONN
*I *354:D I *D sg13g2_hv_sdfbbp_1
*I *343:X O *D sg13g2_hv_mux2_1
*CAP
1 *354:D 5.02369e-05
2 *343:X 0.000238761
3 *16:8 0.000288997
4 *354:D *354:SCE 1.54008e-05
5 *16:8 *340:A 0.000288173
6 *16:8 *50:8 0.000554907
*RES
1 *343:X *16:8 43.811 
2 *16:8 *354:D 20.4841 
*END

*D_NET *17 0.000834574
*CONN
*I *359:D I *D sg13g2_hv_sdfbbp_1
*I *314:X O *D sg13g2_hv_and2_1
*CAP
1 *359:D 0.000397356
2 *314:X 0.000397356
3 *359:D *359:SCE 3.9861e-05
*RES
1 *314:X *359:D 24.5938 
*END

*D_NET *18 0.00100077
*CONN
*I *364:D I *D sg13g2_hv_sdfbbp_1
*I *317:X O *D sg13g2_hv_and2_1
*CAP
1 *364:D 0.000358954
2 *317:X 0.000141429
3 *18:8 0.000500383
4 *364:D *364:SCE 0
5 *364:D *66:10 0
*RES
1 *317:X *18:8 41.5862 
2 *18:8 *364:D 23.296 
*END

*D_NET *19 0.000637646
*CONN
*I *369:D I *D sg13g2_hv_sdfbbp_1
*I *320:X O *D sg13g2_hv_and2_1
*CAP
1 *369:D 0.000318823
2 *320:X 0.000318823
3 *369:D *320:B 0
4 *369:D *369:SCE 0
5 *369:D *369:SCD 0
*RES
1 *320:X *369:D 23.296 
*END

*D_NET *20 0.000564237
*CONN
*I *374:D I *D sg13g2_hv_sdfbbp_1
*I *324:X O *D sg13g2_hv_and2_1
*CAP
1 *374:D 6.11383e-05
2 *324:X 0.000109583
3 *20:8 0.000170721
4 *374:D *374:SCE 4.01846e-05
5 *20:8 *53:8 0.00018261
*RES
1 *324:X *20:8 41.5862 
2 *20:8 *374:D 20.7004 
*END

*D_NET *21 0.00122588
*CONN
*I *379:D I *D sg13g2_hv_sdfbbp_1
*I *329:Y O *D sg13g2_hv_nand2b_1
*CAP
1 *379:D 6.85435e-05
2 *329:Y 8.5415e-05
3 *21:8 0.000153959
4 *379:D *379:CLK 0
5 *379:D *395:A 0
6 *21:8 *28:32 7.52149e-05
7 *21:8 *28:47 0.00037247
8 *21:8 *88:12 0.000235556
9 *21:8 *88:18 0.000234726
*RES
1 *329:Y *21:8 42.0806 
2 *21:8 *379:D 20.7004 
*END

*D_NET *22 0.00105341
*CONN
*I *314:B I *D sg13g2_hv_and2_1
*I *313:X O *D sg13g2_hv_xor2_1
*CAP
1 *314:B 0.000330814
2 *313:X 0.000330814
3 *314:B *314:A 0.000391778
*RES
1 *313:X *314:B 43.6771 
*END

*D_NET *23 0.000740692
*CONN
*I *316:B I *D sg13g2_hv_xnor2_1
*I *315:Y O *D sg13g2_hv_nand2_1
*CAP
1 *316:B 0.000216733
2 *315:Y 0.000216733
3 *316:B *317:A 0
4 *316:B *392:A 0.000307226
5 *316:B *49:23 0
6 *316:B *51:8 0
*RES
1 *315:Y *316:B 42.5956 
*END

*D_NET *24 0.00110749
*CONN
*I *317:B I *D sg13g2_hv_and2_1
*I *316:Y O *D sg13g2_hv_xnor2_1
*CAP
1 *317:B 0.000304881
2 *316:Y 0.000304881
3 *317:B *317:A 0.000497731
4 *317:B *392:A 0
5 *317:B *82:16 0
6 counter_value_o[0] *317:B 0
*RES
1 *316:Y *317:B 43.6977 
*END

*D_NET *25 0.000787072
*CONN
*I *319:B I *D sg13g2_hv_xnor2_1
*I *318:Y O *D sg13g2_hv_nand3_1
*CAP
1 *319:B 8.83325e-05
2 *318:Y 0.000107255
3 *25:8 0.000195588
4 *319:B *71:39 0
5 *319:B *87:16 0
6 *25:8 *60:21 0.000395896
*RES
1 *318:Y *25:8 41.8334 
2 *25:8 *319:B 40.7519 
*END

*D_NET *26 0.000710414
*CONN
*I *320:B I *D sg13g2_hv_and2_1
*I *319:Y O *D sg13g2_hv_xnor2_1
*CAP
1 *320:B 0.000355207
2 *319:Y 0.000355207
3 *369:D *320:B 0
*RES
1 *319:Y *320:B 44.1921 
*END

*D_NET *27 0.000648135
*CONN
*I *322:A I *D sg13g2_hv_buf_8
*I *321:X O *D sg13g2_hv_and4_1
*CAP
1 *322:A 0
2 *321:X 0.000324067
3 *27:10 0.000324067
4 *27:10 *321:C 0
5 *27:10 *82:36 0
*RES
1 *321:X *27:10 44.0994 
2 *27:10 *322:A 40 
*END

*D_NET *28 0.0161741
*CONN
*I *342:C I *D sg13g2_hv_nand4_1
*I *338:B I *D sg13g2_hv_nand3_1
*I *332:A1 I *D sg13g2_hv_a21oi_1
*I *334:C I *D sg13g2_hv_nand4_1
*I *323:B I *D sg13g2_hv_xor2_1
*I *328:D I *D sg13g2_hv_nand4_1
*I *326:A2 I *D sg13g2_hv_a21oi_1
*I *322:X O *D sg13g2_hv_buf_8
*CAP
1 *342:C 2.77263e-05
2 *338:B 0.000821322
3 *332:A1 0
4 *334:C 0
5 *323:B 0.000653907
6 *328:D 3.75204e-05
7 *326:A2 4.21292e-05
8 *322:X 0.000319533
9 *28:73 0.00152149
10 *28:58 0.000725621
11 *28:47 0.00230068
12 *28:32 0.00311577
13 *28:21 0.000335379
14 *28:10 0.000445153
15 *323:B *323:A 0
16 *323:B *324:B 0
17 *338:B *338:C 0
18 *338:B *340:B_N 0
19 *338:B *34:30 0
20 *338:B *90:21 0
21 *28:10 *327:A 0
22 *28:10 *32:8 0.000234726
23 *28:10 *46:51 0
24 *28:21 *326:A1 0.000315105
25 *28:21 *327:A 0
26 *28:21 *32:8 0.000394151
27 *28:32 *326:A1 0.000159839
28 *28:32 *32:8 0.000128576
29 *28:32 *51:51 0.000448515
30 *28:32 *88:18 0.000288174
31 *28:32 *88:20 0.000287672
32 *28:47 *331:A 0.000160013
33 *28:47 *386:A 0
34 *28:47 *37:8 7.57164e-05
35 *28:47 *51:51 0.00114407
36 *28:47 *76:10 0.000556237
37 *28:47 *88:12 0
38 *28:58 *331:A 0.000315933
39 *28:58 *37:8 0.000293958
40 *28:73 *331:A 0.000368552
41 *28:73 *331:B 0
42 *28:73 *340:B_N 0
43 *28:73 *34:30 0
44 *28:73 *36:10 0.000208954
45 *28:73 *37:8 0
46 *28:73 *90:25 0
47 *21:8 *28:32 7.52149e-05
48 *21:8 *28:47 0.00037247
*RES
1 *322:X *28:10 44.1303 
2 *28:10 *326:A2 40.3193 
3 *28:10 *28:21 1.8334 
4 *28:21 *328:D 40.3193 
5 *28:21 *28:32 3.811 
6 *28:32 *323:B 47.0246 
7 *28:32 *28:47 22.5261 
8 *28:47 *334:C 40 
9 *28:47 *28:58 21.4626 
10 *28:58 *332:A1 20 
11 *28:58 *28:73 46.9834 
12 *28:73 *338:B 27.8383 
13 *28:73 *342:C 20.3502 
*END

*D_NET *29 0.000800185
*CONN
*I *324:B I *D sg13g2_hv_and2_1
*I *323:X O *D sg13g2_hv_xor2_1
*CAP
1 *324:B 0.000400093
2 *323:X 0.000400093
3 *324:B *324:A 0
4 *324:B *374:SCE 0
5 *323:B *324:B 0
*RES
1 *323:X *324:B 44.5526 
*END

*D_NET *30 0.00124039
*CONN
*I *326:B1 I *D sg13g2_hv_a21oi_1
*I *325:Y O *D sg13g2_hv_nand2_1
*CAP
1 *326:B1 0.000336733
2 *325:Y 0.000165935
3 *30:8 0.000502668
4 *326:B1 *325:B 0
5 *326:B1 *327:A 0
6 *326:B1 *51:34 0
7 *326:B1 *51:36 0
8 *30:8 *60:21 0
9 *30:8 *87:10 0.000235055
*RES
1 *325:Y *30:8 41.957 
2 *30:8 *326:B1 43.3475 
*END

*D_NET *31 0.000916697
*CONN
*I *329:A_N I *D sg13g2_hv_nand2b_1
*I *326:Y O *D sg13g2_hv_a21oi_1
*CAP
1 *329:A_N 3.15674e-05
2 *326:Y 0.000244879
3 *31:12 0.000276447
4 *329:A_N *329:B 0
5 *31:12 *32:8 0.000181695
6 *31:12 *51:51 0.00018211
*RES
1 *326:Y *31:12 43.2136 
2 *31:12 *329:A_N 40.3502 
*END

*D_NET *32 0.00133569
*CONN
*I *328:C I *D sg13g2_hv_nand4_1
*I *327:Y O *D sg13g2_hv_inv_1
*CAP
1 *328:C 0
2 *327:Y 0.000198273
3 *32:8 0.000198273
4 *28:10 *32:8 0.000234726
5 *28:21 *32:8 0.000394151
6 *28:32 *32:8 0.000128576
7 *31:12 *32:8 0.000181695
*RES
1 *327:Y *32:8 43.3166 
2 *32:8 *328:C 40 
*END

*D_NET *33 0.000488979
*CONN
*I *329:B I *D sg13g2_hv_nand2b_1
*I *328:Y O *D sg13g2_hv_nand4_1
*CAP
1 *329:B 0.000188076
2 *328:Y 0.000188076
3 *329:B *89:14 0.000112826
4 *329:A_N *329:B 0
*RES
1 *328:Y *329:B 42.3381 
*END

*D_NET *34 0.00472828
*CONN
*I *342:D I *D sg13g2_hv_nand4_1
*I *338:C I *D sg13g2_hv_nand3_1
*I *332:A2 I *D sg13g2_hv_a21oi_1
*I *334:D I *D sg13g2_hv_nand4_1
*I *330:X O *D sg13g2_hv_and2_2
*CAP
1 *342:D 4.72978e-05
2 *338:C 0.000706815
3 *332:A2 4.72978e-05
4 *334:D 0
5 *330:X 0.000402401
6 *34:30 0.00139515
7 *34:12 0.000128291
8 *34:8 0.00112443
9 *338:C *397:A 0
10 *338:C *90:40 0
11 *34:8 *36:10 0.00050279
12 *34:8 *51:51 0
13 *34:30 *397:A 0
14 *34:30 *36:10 0.0003738
15 *338:B *338:C 0
16 *338:B *34:30 0
17 *28:73 *34:30 0
*RES
1 *330:X *34:8 45.2942 
2 *34:8 *34:12 20.7519 
3 *34:12 *334:D 20 
4 *34:12 *332:A2 20.5974 
5 *34:8 *34:30 27.004 
6 *34:30 *338:C 27.5911 
7 *34:30 *342:D 20.5974 
*END

*D_NET *35 0.000276604
*CONN
*I *332:B1 I *D sg13g2_hv_a21oi_1
*I *331:Y O *D sg13g2_hv_nand2_1
*CAP
1 *332:B1 0.000138302
2 *331:Y 0.000138302
*RES
1 *331:Y *332:B1 41.6377 
*END

*D_NET *36 0.00181813
*CONN
*I *335:A_N I *D sg13g2_hv_nand2b_1
*I *332:Y O *D sg13g2_hv_a21oi_1
*CAP
1 *335:A_N 3.70733e-05
2 *332:Y 0.000329217
3 *36:10 0.000366291
4 *335:A_N *335:B 0
5 *36:10 *331:A 0
6 *36:10 *51:51 0
7 *28:73 *36:10 0.000208954
8 *34:8 *36:10 0.00050279
9 *34:30 *36:10 0.0003738
*RES
1 *332:Y *36:10 44.3775 
2 *36:10 *335:A_N 40.3193 
*END

*D_NET *37 0.00123639
*CONN
*I *334:B I *D sg13g2_hv_nand4_1
*I *333:Y O *D sg13g2_hv_inv_1
*CAP
1 *334:B 9.15844e-06
2 *333:Y 0.000359867
3 *37:8 0.000369025
4 *37:8 *331:A 0
5 *37:8 *331:B 0.000128663
6 *37:8 *386:A 0
7 *37:8 *388:A 0
8 *28:47 *37:8 7.57164e-05
9 *28:58 *37:8 0.000293958
10 *28:73 *37:8 0
*RES
1 *333:Y *37:8 44.5526 
2 *37:8 *334:B 40.1688 
*END

*D_NET *38 0.000419484
*CONN
*I *335:B I *D sg13g2_hv_nand2b_1
*I *334:Y O *D sg13g2_hv_nand4_1
*CAP
1 *335:B 0.000209742
2 *334:Y 0.000209742
3 *335:A_N *335:B 0
*RES
1 *334:Y *335:B 42.3381 
*END

*D_NET *39 0.000865586
*CONN
*I *339:A0 I *D sg13g2_hv_mux2_1
*I *336:Y O *D sg13g2_hv_nor2b_1
*CAP
1 *339:A0 0.00029548
2 *336:Y 0.00029548
3 *339:A0 *336:A 0.000274627
4 *339:A0 *336:B_N 0
5 *339:A0 *339:A1 0
*RES
1 *336:Y *339:A0 43.3475 
*END

*D_NET *40 0.000655838
*CONN
*I *339:A1 I *D sg13g2_hv_mux2_1
*I *337:X O *D sg13g2_hv_and2_1
*CAP
1 *339:A1 6.99826e-05
2 *337:X 0.000257937
3 *40:8 0.000327919
4 *40:8 *52:31 0
5 *40:8 *91:8 0
6 *40:8 *91:14 0
7 *339:A0 *339:A1 0
*RES
1 *337:X *40:8 42.8222 
2 *40:8 *339:A1 40.7519 
*END

*D_NET *41 0.00141826
*CONN
*I *339:S I *D sg13g2_hv_mux2_1
*I *338:Y O *D sg13g2_hv_nand3_1
*CAP
1 *339:S 0.000287525
2 *338:Y 0.00036519
3 *41:8 0.000652715
4 *339:S *336:B_N 0.000112826
5 *339:S *52:25 0
6 *41:8 *47:32 0
7 *41:8 *52:31 0
*RES
1 *338:Y *41:8 44.3054 
2 *41:8 *339:S 43.1312 
*END

*D_NET *42 0.000641541
*CONN
*I *343:A0 I *D sg13g2_hv_mux2_1
*I *340:Y O *D sg13g2_hv_nor2b_1
*CAP
1 *343:A0 8.14798e-05
2 *340:Y 0.00023929
3 *42:8 0.00032077
4 *42:8 *340:A 0
5 *42:8 *44:10 0
*RES
1 *340:Y *42:8 42.3278 
2 *42:8 *343:A0 40.7519 
*END

*D_NET *43 0.000862054
*CONN
*I *343:A1 I *D sg13g2_hv_mux2_1
*I *341:X O *D sg13g2_hv_and2_1
*CAP
1 *343:A1 0
2 *341:X 0.000233079
3 *43:10 0.000233079
4 *43:10 *340:A 0.000395896
5 *43:10 *91:41 0
*RES
1 *341:X *43:10 42.5853 
2 *43:10 *343:A1 40 
*END

*D_NET *44 0.00105722
*CONN
*I *343:S I *D sg13g2_hv_mux2_1
*I *342:Y O *D sg13g2_hv_nand4_1
*CAP
1 *343:S 0
2 *342:Y 0.000437557
3 *44:10 0.000437557
4 *44:10 *340:A 0.00018211
5 *44:10 *342:B 0
6 *44:10 *91:41 0
7 *42:8 *44:10 0
*RES
1 *342:Y *44:10 44.3157 
2 *44:10 *343:S 40 
*END

*D_NET *45 0.00576718
*CONN
*I *386:A I *D sg13g2_hv_buf_16
*I *385:A I *D sg13g2_hv_buf_16
*I *384:X O *D sg13g2_hv_buf_16
*CAP
1 *386:A 0.000978156
2 *385:A 0
3 *384:X 0
4 *45:11 0.00190543
5 *45:7 0.00288359
6 *386:A *60:21 0
7 *386:A *88:12 0
8 *45:11 *46:51 0
9 *45:11 *60:21 0
10 *45:11 *88:12 0
11 *28:47 *386:A 0
12 *37:8 *386:A 0
*RES
1 *384:X *45:7 40 
2 *45:7 *45:11 36.9126 
3 *45:11 *385:A 20 
4 *45:7 *386:A 49.4966 
*END

*D_NET *46 0.0105397
*CONN
*I *379:CLK I *D sg13g2_hv_sdfbbp_1
*I *369:CLK I *D sg13g2_hv_sdfbbp_1
*I *364:CLK I *D sg13g2_hv_sdfbbp_1
*I *359:CLK I *D sg13g2_hv_sdfbbp_1
*I *385:X O *D sg13g2_hv_buf_16
*CAP
1 *379:CLK 0.000204444
2 *369:CLK 0
3 *364:CLK 0.000990221
4 *359:CLK 0
5 *385:X 0
6 *46:51 0.0017358
7 *46:20 0.00263276
8 *46:10 0.0025438
9 *46:4 0.00243262
10 *46:10 *394:A 0
11 *46:10 *51:28 0
12 *46:20 *51:19 0
13 *46:20 *51:28 0
14 *46:20 *71:8 0
15 *46:51 *327:A 0
16 *46:51 *394:A 0
17 *46:51 *60:21 0
18 *46:51 *88:12 0
19 *46:51 *88:18 0
20 *46:51 *89:18 0
21 *379:D *379:CLK 0
22 *3:12 *379:CLK 0
23 *28:10 *46:51 0
24 *45:11 *46:51 0
*RES
1 *385:X *46:4 20 
2 *46:4 *46:10 30.3103 
3 *46:10 *46:20 38.1486 
4 *46:20 *359:CLK 20 
5 *46:20 *364:CLK 30.918 
6 *46:10 *369:CLK 40 
7 *46:4 *46:51 36.2122 
8 *46:51 *379:CLK 42.0497 
*END

*D_NET *47 0.0101564
*CONN
*I *354:CLK I *D sg13g2_hv_sdfbbp_1
*I *349:CLK I *D sg13g2_hv_sdfbbp_1
*I *344:CLK I *D sg13g2_hv_sdfbbp_1
*I *374:CLK I *D sg13g2_hv_sdfbbp_1
*I *386:X O *D sg13g2_hv_buf_16
*CAP
1 *354:CLK 0.000508651
2 *349:CLK 0.000463382
3 *344:CLK 0
4 *374:CLK 0
5 *386:X 0.000186489
6 *47:32 0.00197277
7 *47:16 0.00121072
8 *47:12 0.00250095
9 *47:6 0.00247745
10 *47:6 *90:21 0.00032431
11 *47:6 *91:23 0
12 *47:12 *90:8 0
13 *47:12 *90:21 0.000436791
14 *47:12 *91:23 0
15 *47:16 *70:10 7.4933e-05
16 *47:32 *388:A 0
17 *41:8 *47:32 0
*RES
1 *386:X *47:6 22.266 
2 *47:6 *47:12 35.3161 
3 *47:12 *47:16 35.4294 
4 *47:16 *374:CLK 20 
5 *47:12 *344:CLK 40 
6 *47:6 *47:32 32.2158 
7 *47:32 *349:CLK 45.0779 
8 *47:32 *354:CLK 45.8401 
*END

*D_NET *48 0.000489054
*CONN
*I *374:SCE I *D sg13g2_hv_sdfbbp_1
*I *375:L_LO O *D sg13g2_hv_tielo
*CAP
1 *374:SCE 0.000224434
2 *375:L_LO 0.000224434
3 *324:B *374:SCE 0
4 *374:D *374:SCE 4.01846e-05
*RES
1 *375:L_LO *374:SCE 42.6162 
*END

*D_NET *49 0.00742316
*CONN
*I *315:B I *D sg13g2_hv_nand2_1
*I *321:D I *D sg13g2_hv_and4_1
*I *318:C I *D sg13g2_hv_nand3_1
*I *313:B I *D sg13g2_hv_xor2_1
*I *389:X O *D sg13g2_hv_buf_1
*CAP
1 *315:B 0
2 *321:D 0.000440835
3 *318:C 0
4 *313:B 0
5 *389:X 0.000684605
6 *49:27 0.00191796
7 *49:23 0.00219191
8 *49:16 0.000714792
9 *49:14 0.000684605
10 *321:D *321:C 0.000339607
11 *321:D *60:21 0
12 *321:D *71:47 0.000448842
13 *49:14 *313:A 0
14 *49:14 *71:8 0
15 *49:23 *314:A 0
16 *49:23 *392:A 0
17 *49:23 *51:8 0
18 *49:23 *71:23 0
19 *49:27 *60:10 0
20 *49:27 *60:21 0
21 *316:B *49:23 0
*RES
1 *389:X *49:14 47.7121 
2 *49:14 *49:16 20 
3 *49:16 *313:B 20 
4 *49:16 *49:23 7.4572 
5 *49:23 *49:27 36.4182 
6 *49:27 *318:C 40 
7 *49:27 *321:D 45.5826 
8 *49:23 *315:B 20 
*END

*D_NET *50 0.00572514
*CONN
*I *391:A I *D sg13g2_hv_buf_1
*I *341:B I *D sg13g2_hv_and2_1
*I *340:A I *D sg13g2_hv_nor2b_1
*I *354:Q O *D sg13g2_hv_sdfbbp_1
*CAP
1 *391:A 0.000393612
2 *341:B 3.46921e-05
3 *340:A 0.000494865
4 *354:Q 0.000393612
5 *50:8 0.00175842
6 *50:6 0.00122886
7 *340:A *340:B_N 0
8 *340:A *91:41 0
9 *391:A *354:RESET_B 0
10 *50:8 *91:41 0
11 counter_value_o[7] *391:A 0
12 *16:8 *340:A 0.000288173
13 *16:8 *50:8 0.000554907
14 *42:8 *340:A 0
15 *43:10 *340:A 0.000395896
16 *44:10 *340:A 0.00018211
*RES
1 *354:Q *50:6 40 
2 *50:6 *50:8 16.171 
3 *50:8 *340:A 46.18 
4 *50:8 *341:B 40.3193 
5 *354:Q *391:A 44.7483 
*END

*D_NET *51 0.0214812
*CONN
*I *317:A I *D sg13g2_hv_and2_1
*I *324:A I *D sg13g2_hv_and2_1
*I *325:A I *D sg13g2_hv_nand2_1
*I *331:A I *D sg13g2_hv_nand2_1
*I *334:A I *D sg13g2_hv_nand4_1
*I *328:A I *D sg13g2_hv_nand4_1
*I *320:A I *D sg13g2_hv_and2_1
*I *314:A I *D sg13g2_hv_and2_1
*I *387:X O *D sg13g2_hv_dlygate4sd2_1
*CAP
1 *317:A 0.000700825
2 *324:A 0.000276342
3 *325:A 7.07791e-05
4 *331:A 0.000339602
5 *334:A 6.97182e-05
6 *328:A 0
7 *320:A 0
8 *314:A 0.000653336
9 *387:X 0
10 *51:51 0.00267813
11 *51:36 0.00247408
12 *51:34 0.000928299
13 *51:28 0.00214479
14 *51:19 0.00272359
15 *51:8 0.00272595
16 *51:4 0.00126605
17 *314:A *359:SCD 0
18 *317:A *364:SCD 0
19 *317:A *392:A 0
20 *317:A *82:16 0
21 *324:A *53:8 0
22 *324:A *87:8 0
23 *325:A *323:A 4.77425e-05
24 *51:8 *359:SCD 0
25 *51:8 *387:A 0
26 *51:19 *71:8 0
27 *51:19 *75:8 7.4933e-05
28 *51:34 *323:A 0
29 *51:34 *87:8 0
30 *51:36 *323:A 0
31 *51:36 *325:B 0.000242055
32 *51:51 *330:B 0
33 *51:51 *76:10 0.000556237
34 *51:51 *89:8 0
35 *51:51 *89:14 0
36 counter_value_o[0] *317:A 0
37 *314:B *314:A 0.000391778
38 *316:B *317:A 0
39 *316:B *51:8 0
40 *317:B *317:A 0.000497731
41 *324:B *324:A 0
42 *326:B1 *51:34 0
43 *326:B1 *51:36 0
44 *28:32 *51:51 0.000448515
45 *28:47 *331:A 0.000160013
46 *28:47 *51:51 0.00114407
47 *28:58 *331:A 0.000315933
48 *28:73 *331:A 0.000368552
49 *31:12 *51:51 0.00018211
50 *34:8 *51:51 0
51 *36:10 *331:A 0
52 *36:10 *51:51 0
53 *37:8 *331:A 0
54 *46:10 *51:28 0
55 *46:20 *51:19 0
56 *46:20 *51:28 0
57 *49:23 *314:A 0
58 *49:23 *51:8 0
*RES
1 *387:X *51:4 20 
2 *51:4 *51:8 6.5096 
3 *51:8 *314:A 27.2409 
4 *51:8 *51:19 38.3958 
5 *51:19 *320:A 40 
6 *51:19 *51:28 15.1822 
7 *51:28 *51:34 25.8607 
8 *51:34 *51:36 2.266 
9 *51:36 *328:A 20 
10 *51:36 *51:51 44.7921 
11 *51:51 *334:A 40.7519 
12 *51:51 *331:A 44.1303 
13 *51:34 *325:A 20.9167 
14 *51:28 *324:A 43.0488 
15 *51:4 *317:A 28.2709 
*END

*D_NET *52 0.00500085
*CONN
*I *341:A I *D sg13g2_hv_and2_1
*I *336:B_N I *D sg13g2_hv_nor2b_1
*I *337:A I *D sg13g2_hv_and2_1
*I *340:B_N I *D sg13g2_hv_nor2b_1
*I *388:X O *D sg13g2_hv_dlygate4sd2_1
*CAP
1 *341:A 0.000215397
2 *336:B_N 0.000541358
3 *337:A 0
4 *340:B_N 0.000270733
5 *388:X 0.000135079
6 *52:31 9.47803e-05
7 *52:25 0.00145757
8 *52:10 0.0014574
9 *52:8 0.000715709
10 *336:B_N *336:A 0
11 *336:B_N *91:14 0
12 *336:B_N *91:23 0
13 *340:B_N *342:B 0
14 *340:B_N *388:A 0
15 *340:B_N *90:21 0
16 *340:B_N *91:23 0
17 *340:B_N *91:41 0
18 *341:A *91:41 0
19 *52:10 *388:A 0
20 *52:10 *91:41 0
21 *52:25 *91:23 0
22 *52:31 *91:14 0
23 *338:B *340:B_N 0
24 *339:A0 *336:B_N 0
25 *339:S *336:B_N 0.000112826
26 *339:S *52:25 0
27 *340:A *340:B_N 0
28 *28:73 *340:B_N 0
29 *40:8 *52:31 0
30 *41:8 *52:31 0
*RES
1 *388:X *52:8 41.4008 
2 *52:8 *52:10 3.5638 
3 *52:10 *340:B_N 42.3125 
4 *52:10 *52:25 28.3224 
5 *52:25 *52:31 41.0918 
6 *52:31 *337:A 20 
7 *52:25 *336:B_N 26.3242 
8 *52:8 *341:A 42.0806 
*END

*D_NET *53 0.000540449
*CONN
*I *374:SCD I *D sg13g2_hv_sdfbbp_1
*I *376:L_LO O *D sg13g2_hv_tielo
*CAP
1 *374:SCD 0
2 *376:L_LO 0.000178919
3 *53:8 0.000178919
4 *324:A *53:8 0
5 *20:8 *53:8 0.00018261
*RES
1 *376:L_LO *53:8 42.575 
2 *53:8 *374:SCD 40 
*END

*D_NET *54 0.00100153
*CONN
*I *354:SCE I *D sg13g2_hv_sdfbbp_1
*I *355:L_LO O *D sg13g2_hv_tielo
*CAP
1 *354:SCE 0.000290845
2 *355:L_LO 0.000290845
3 *354:SCE *354:SCD 0.000404438
4 *354:D *354:SCE 1.54008e-05
*RES
1 *355:L_LO *354:SCE 43.5432 
*END

*D_NET *55 0.000998476
*CONN
*I *354:SCD I *D sg13g2_hv_sdfbbp_1
*I *356:L_LO O *D sg13g2_hv_tielo
*CAP
1 *354:SCD 0.000297019
2 *356:L_LO 0.000297019
3 *354:SCD *91:41 0
4 *354:SCE *354:SCD 0.000404438
*RES
1 *356:L_LO *354:SCD 43.0488 
*END

*D_NET *56 0.000551654
*CONN
*I *359:SCE I *D sg13g2_hv_sdfbbp_1
*I *360:L_LO O *D sg13g2_hv_tielo
*CAP
1 *359:SCE 0.000255896
2 *360:L_LO 0.000255896
3 *359:SCE *359:SCD 0
4 *359:D *359:SCE 3.9861e-05
*RES
1 *360:L_LO *359:SCE 42.6162 
*END

*D_NET *57 0.000449703
*CONN
*I *359:SCD I *D sg13g2_hv_sdfbbp_1
*I *361:L_LO O *D sg13g2_hv_tielo
*CAP
1 *359:SCD 0.000224851
2 *361:L_LO 0.000224851
3 *314:A *359:SCD 0
4 *359:SCE *359:SCD 0
5 *51:8 *359:SCD 0
*RES
1 *361:L_LO *359:SCD 42.1836 
*END

*D_NET *58 0.000565095
*CONN
*I *379:SCE I *D sg13g2_hv_sdfbbp_1
*I *380:L_LO O *D sg13g2_hv_tielo
*CAP
1 *379:SCE 0.000282548
2 *380:L_LO 0.000282548
3 *379:SCE *379:SCD 0
*RES
1 *380:L_LO *379:SCE 42.6986 
*END

*D_NET *59 0.00132863
*CONN
*I *379:SCD I *D sg13g2_hv_sdfbbp_1
*I *381:L_LO O *D sg13g2_hv_tielo
*CAP
1 *379:SCD 0.000429626
2 *381:L_LO 0.000429626
3 *379:SCD *395:A 0.000469379
4 *379:SCE *379:SCD 0
*RES
1 *381:L_LO *379:SCD 44.7174 
*END

*D_NET *60 0.0168882
*CONN
*I *388:A I *D sg13g2_hv_dlygate4sd2_1
*I *387:A I *D sg13g2_hv_dlygate4sd2_1
*I *390:X O *D sg13g2_hv_buf_1
*CAP
1 *388:A 0.000740774
2 *387:A 3.4061e-05
3 *390:X 0.000658251
4 *60:21 0.00598346
5 *60:10 0.005935
6 *388:A *331:B 0
7 *388:A *342:B 0
8 *388:A *90:25 0
9 *60:21 *71:47 0
10 *60:21 *87:10 0.00189025
11 *60:21 *87:16 0.00125055
12 *321:D *60:21 0
13 *340:B_N *388:A 0
14 *386:A *60:21 0
15 *390:A *60:10 0
16 *25:8 *60:21 0.000395896
17 *30:8 *60:21 0
18 *37:8 *388:A 0
19 *45:11 *60:21 0
20 *46:51 *60:21 0
21 *47:32 *388:A 0
22 *49:27 *60:10 0
23 *49:27 *60:21 0
24 *51:8 *387:A 0
25 *52:10 *388:A 0
*RES
1 *390:X *60:10 47.5061 
2 *60:10 *387:A 40.3193 
3 *60:10 *60:21 59.431 
4 *60:21 *388:A 49.0743 
*END

*D_NET *61 0.000734913
*CONN
*I *369:SCE I *D sg13g2_hv_sdfbbp_1
*I *370:L_LO O *D sg13g2_hv_tielo
*CAP
1 *369:SCE 0.000367456
2 *370:L_LO 0.000367456
3 *369:D *369:SCE 0
*RES
1 *370:L_LO *369:SCE 44.1715 
*END

*D_NET *62 0.000528981
*CONN
*I *369:SCD I *D sg13g2_hv_sdfbbp_1
*I *371:L_LO O *D sg13g2_hv_tielo
*CAP
1 *369:SCD 0.00026449
2 *371:L_LO 0.00026449
3 *369:SCD *71:39 0
4 *369:D *369:SCD 0
*RES
1 *371:L_LO *369:SCD 42.884 
*END

*D_NET *63 0.000807366
*CONN
*I *344:SCE I *D sg13g2_hv_sdfbbp_1
*I *345:L_LO O *D sg13g2_hv_tielo
*CAP
1 *344:SCE 0.000266386
2 *345:L_LO 0.000266386
3 *344:SCE *344:SCD 0.000274594
4 *344:D *344:SCE 0
*RES
1 *345:L_LO *344:SCE 43.1106 
*END

*D_NET *64 0.000662456
*CONN
*I *344:SCD I *D sg13g2_hv_sdfbbp_1
*I *346:L_LO O *D sg13g2_hv_tielo
*CAP
1 *344:SCD 0.000193931
2 *346:L_LO 0.000193931
3 *344:SCD *88:8 0
4 *344:SCE *344:SCD 0.000274594
*RES
1 *346:L_LO *344:SCD 42.1836 
*END

*D_NET *65 0.000636548
*CONN
*I *364:SCE I *D sg13g2_hv_sdfbbp_1
*I *365:L_LO O *D sg13g2_hv_tielo
*CAP
1 *364:SCE 0.000318274
2 *365:L_LO 0.000318274
3 *364:SCE *364:SCD 0
4 *364:D *364:SCE 0
*RES
1 *365:L_LO *364:SCE 42.6986 
*END

*D_NET *66 0.00118211
*CONN
*I *364:SCD I *D sg13g2_hv_sdfbbp_1
*I *366:L_LO O *D sg13g2_hv_tielo
*CAP
1 *364:SCD 0.000171752
2 *366:L_LO 0.000249212
3 *66:10 0.000420965
4 *66:10 *82:16 0.00034018
5 *317:A *364:SCD 0
6 *364:D *66:10 0
7 *364:SCE *364:SCD 0
*RES
1 *366:L_LO *66:10 42.7707 
2 *66:10 *364:SCD 41.6171 
*END

*D_NET *67 0.000822841
*CONN
*I *349:SCE I *D sg13g2_hv_sdfbbp_1
*I *350:L_LO O *D sg13g2_hv_tielo
*CAP
1 *349:SCE 0.000253949
2 *350:L_LO 0.000253949
3 *349:SCE *349:SCD 0.000274769
4 *349:D *349:SCE 4.01739e-05
*RES
1 *350:L_LO *349:SCE 43.1106 
*END

*D_NET *68 0.000635825
*CONN
*I *349:SCD I *D sg13g2_hv_sdfbbp_1
*I *351:L_LO O *D sg13g2_hv_tielo
*CAP
1 *349:SCD 0.000180528
2 *351:L_LO 0.000180528
3 *349:SCE *349:SCD 0.000274769
*RES
1 *351:L_LO *349:SCD 42.1836 
*END

*D_NET *69 0.000682486
*CONN
*I *374:RESET_B I *D sg13g2_hv_sdfbbp_1
*I *377:L_HI O *D sg13g2_hv_tiehi
*CAP
1 *374:RESET_B 0.000341243
2 *377:L_HI 0.000341243
*RES
1 *377:L_HI *374:RESET_B 43.8316 
*END

*D_NET *70 0.000593661
*CONN
*I *374:SET_B I *D sg13g2_hv_sdfbbp_1
*I *378:L_HI O *D sg13g2_hv_tiehi
*CAP
1 *374:SET_B 0
2 *378:L_HI 0.000179578
3 *70:16 7.97858e-05
4 *70:10 0.000259364
5 *47:16 *70:10 7.4933e-05
*RES
1 *378:L_HI *70:10 41.9673 
2 *70:10 *70:16 40.9682 
3 *70:16 *374:SET_B 40 
*END

*D_NET *71 0.0090713
*CONN
*I *318:B I *D sg13g2_hv_nand3_1
*I *321:B I *D sg13g2_hv_and4_1
*I *392:A I *D sg13g2_hv_buf_1
*I *315:A I *D sg13g2_hv_nand2_1
*I *313:A I *D sg13g2_hv_xor2_1
*I *359:Q O *D sg13g2_hv_sdfbbp_1
*CAP
1 *318:B 0
2 *321:B 0
3 *392:A 0.000664236
4 *315:A 0
5 *313:A 0.00014787
6 *359:Q 0
7 *71:47 0.000411226
8 *71:39 0.00102194
9 *71:23 0.00129653
10 *71:8 0.00247143
11 *71:4 0.00230198
12 *392:A *82:16 0
13 *71:47 *318:A 0
14 counter_value_o[0] *392:A 0
15 *316:B *392:A 0.000307226
16 *317:A *392:A 0
17 *317:B *392:A 0
18 *319:B *71:39 0
19 *321:D *71:47 0.000448842
20 *369:SCD *71:39 0
21 *46:20 *71:8 0
22 *49:14 *313:A 0
23 *49:14 *71:8 0
24 *49:23 *392:A 0
25 *49:23 *71:23 0
26 *51:19 *71:8 0
27 *60:21 *71:47 0
*RES
1 *359:Q *71:4 20 
2 *71:4 *71:8 37.6542 
3 *71:8 *313:A 41.3802 
4 *71:8 *71:23 26.8083 
5 *71:23 *315:A 20 
6 *71:23 *392:A 27.622 
7 *71:4 *71:39 6.8083 
8 *71:39 *71:47 44.5629 
9 *71:47 *321:B 20 
10 *71:39 *318:B 20 
*END

*D_NET *72 0.000693137
*CONN
*I *354:RESET_B I *D sg13g2_hv_sdfbbp_1
*I *357:L_HI O *D sg13g2_hv_tiehi
*CAP
1 *354:RESET_B 0.000346568
2 *357:L_HI 0.000346568
3 *354:RESET_B *354:SET_B 0
4 *391:A *354:RESET_B 0
*RES
1 *357:L_HI *354:RESET_B 43.9758 
*END

*D_NET *73 0.000427578
*CONN
*I *354:SET_B I *D sg13g2_hv_sdfbbp_1
*I *358:L_HI O *D sg13g2_hv_tiehi
*CAP
1 *354:SET_B 0.000213789
2 *358:L_HI 0.000213789
3 *354:RESET_B *354:SET_B 0
*RES
1 *358:L_HI *354:SET_B 42.4823 
*END

*D_NET *74 0.000446883
*CONN
*I *359:RESET_B I *D sg13g2_hv_sdfbbp_1
*I *362:L_HI O *D sg13g2_hv_tiehi
*CAP
1 *359:RESET_B 0.000223442
2 *362:L_HI 0.000223442
*RES
1 *362:L_HI *359:RESET_B 42.8222 
*END

*D_NET *75 0.000537648
*CONN
*I *359:SET_B I *D sg13g2_hv_sdfbbp_1
*I *363:L_HI O *D sg13g2_hv_tiehi
*CAP
1 *359:SET_B 0
2 *363:L_HI 2.57151e-05
3 *75:14 0.000205643
4 *75:8 0.000231358
5 *51:19 *75:8 7.4933e-05
*RES
1 *363:L_HI *75:8 40.3502 
2 *75:8 *75:14 42.4823 
3 *75:14 *359:SET_B 40 
*END

*D_NET *76 0.00182376
*CONN
*I *379:RESET_B I *D sg13g2_hv_sdfbbp_1
*I *382:L_HI O *D sg13g2_hv_tiehi
*CAP
1 *379:RESET_B 0
2 *382:L_HI 0.000267009
3 *76:10 0.000267009
4 *76:10 *88:8 0.000177273
5 *344:D *76:10 0
6 *28:47 *76:10 0.000556237
7 *51:51 *76:10 0.000556237
*RES
1 *382:L_HI *76:10 44.4084 
2 *76:10 *379:RESET_B 40 
*END

*D_NET *77 0.00044198
*CONN
*I *379:SET_B I *D sg13g2_hv_sdfbbp_1
*I *383:L_HI O *D sg13g2_hv_tiehi
*CAP
1 *379:SET_B 0.00022099
2 *383:L_HI 0.00022099
3 *379:SET_B *396:A 0
*RES
1 *383:L_HI *379:SET_B 42.4823 
*END

*D_NET *78 0.000409115
*CONN
*I *369:RESET_B I *D sg13g2_hv_sdfbbp_1
*I *372:L_HI O *D sg13g2_hv_tiehi
*CAP
1 *369:RESET_B 0.000204558
2 *372:L_HI 0.000204558
3 *369:RESET_B *79:10 0
4 *369:RESET_B *87:8 0
*RES
1 *372:L_HI *369:RESET_B 42.1836 
*END

*D_NET *79 0.00046615
*CONN
*I *369:SET_B I *D sg13g2_hv_sdfbbp_1
*I *373:L_HI O *D sg13g2_hv_tiehi
*CAP
1 *369:SET_B 0
2 *373:L_HI 0.000233075
3 *79:10 0.000233075
4 *369:RESET_B *79:10 0
*RES
1 *373:L_HI *79:10 42.5853 
2 *79:10 *369:SET_B 40 
*END

*D_NET *80 0.000693853
*CONN
*I *344:RESET_B I *D sg13g2_hv_sdfbbp_1
*I *347:L_HI O *D sg13g2_hv_tiehi
*CAP
1 *344:RESET_B 0.000346927
2 *347:L_HI 0.000346927
3 *344:RESET_B *90:8 0
*RES
1 *347:L_HI *344:RESET_B 43.8316 
*END

*D_NET *81 0.000456734
*CONN
*I *344:SET_B I *D sg13g2_hv_sdfbbp_1
*I *348:L_HI O *D sg13g2_hv_tiehi
*CAP
1 *344:SET_B 0
2 *348:L_HI 0.000148581
3 *81:14 7.97858e-05
4 *81:8 0.000228367
5 *81:8 *90:8 0
*RES
1 *348:L_HI *81:8 41.6171 
2 *81:8 *81:14 40.9682 
3 *81:14 *344:SET_B 40 
*END

*D_NET *82 0.00504296
*CONN
*I *321:A I *D sg13g2_hv_and4_1
*I *318:A I *D sg13g2_hv_nand3_1
*I *393:A I *D sg13g2_hv_buf_1
*I *316:A I *D sg13g2_hv_xnor2_1
*I *364:Q O *D sg13g2_hv_sdfbbp_1
*CAP
1 *321:A 0
2 *318:A 0.000304011
3 *393:A 0.000259263
4 *316:A 0
5 *364:Q 2.55179e-05
6 *82:36 0.000551424
7 *82:16 0.00115924
8 *82:10 0.00177445
9 *82:8 0.000628873
10 *318:A *321:C 0
11 *318:A *364:RESET_B 0
12 *393:A *364:SET_B 0
13 *82:8 *364:RESET_B 0
14 *82:36 *321:C 0
15 counter_value_o[1] *393:A 0
16 *317:A *82:16 0
17 *317:B *82:16 0
18 *392:A *82:16 0
19 *27:10 *82:36 0
20 *66:10 *82:16 0.00034018
21 *71:47 *318:A 0
*RES
1 *364:Q *82:8 40.3193 
2 *82:8 *82:10 4.3054 
3 *82:10 *82:16 34.5436 
4 *82:16 *316:A 20 
5 *82:10 *393:A 42.6986 
6 *82:8 *82:36 23.2033 
7 *82:36 *318:A 23.5432 
8 *82:36 *321:A 20 
*END

*D_NET *83 0.000600183
*CONN
*I *364:RESET_B I *D sg13g2_hv_sdfbbp_1
*I *367:L_HI O *D sg13g2_hv_tiehi
*CAP
1 *364:RESET_B 0.000300092
2 *367:L_HI 0.000300092
3 *364:RESET_B *364:SET_B 0
4 *318:A *364:RESET_B 0
5 *82:8 *364:RESET_B 0
*RES
1 *367:L_HI *364:RESET_B 43.4814 
*END

*D_NET *84 0.000480823
*CONN
*I *364:SET_B I *D sg13g2_hv_sdfbbp_1
*I *368:L_HI O *D sg13g2_hv_tiehi
*CAP
1 *364:SET_B 0.000240411
2 *368:L_HI 0.000240411
3 *364:RESET_B *364:SET_B 0
4 *393:A *364:SET_B 0
*RES
1 *368:L_HI *364:SET_B 42.4823 
*END

*D_NET *85 0.000419423
*CONN
*I *349:RESET_B I *D sg13g2_hv_sdfbbp_1
*I *352:L_HI O *D sg13g2_hv_tiehi
*CAP
1 *349:RESET_B 0.000209711
2 *352:L_HI 0.000209711
3 *349:RESET_B *86:12 0
*RES
1 *352:L_HI *349:RESET_B 42.4308 
*END

*D_NET *86 0.000492682
*CONN
*I *349:SET_B I *D sg13g2_hv_sdfbbp_1
*I *353:L_HI O *D sg13g2_hv_tiehi
*CAP
1 *349:SET_B 0
2 *353:L_HI 0.000246341
3 *86:12 0.000246341
4 *86:12 *91:8 0
5 *349:RESET_B *86:12 0
*RES
1 *353:L_HI *86:12 42.9355 
2 *86:12 *349:SET_B 40 
*END

*D_NET *87 0.00872047
*CONN
*I *394:A I *D sg13g2_hv_buf_1
*I *321:C I *D sg13g2_hv_and4_1
*I *319:A I *D sg13g2_hv_xnor2_1
*I *369:Q O *D sg13g2_hv_sdfbbp_1
*CAP
1 *394:A 0.000677079
2 *321:C 0.000285455
3 *319:A 0
4 *369:Q 0.000632318
5 *87:16 0.000704185
6 *87:10 0.00158474
7 *87:8 0.00112124
8 counter_value_o[2] *394:A 0
9 *318:A *321:C 0
10 *319:B *87:16 0
11 *321:D *321:C 0.000339607
12 *324:A *87:8 0
13 *369:RESET_B *87:8 0
14 *27:10 *321:C 0
15 *30:8 *87:10 0.000235055
16 *46:10 *394:A 0
17 *46:51 *394:A 0
18 *51:34 *87:8 0
19 *60:21 *87:10 0.00189025
20 *60:21 *87:16 0.00125055
21 *82:36 *321:C 0
*RES
1 *369:Q *87:8 46.1594 
2 *87:8 *87:10 8.755 
3 *87:10 *87:16 26.5405 
4 *87:16 *319:A 20 
5 *87:16 *321:C 23.5123 
6 *87:10 *394:A 47.6735 
*END

*D_NET *88 0.011149
*CONN
*I *330:A I *D sg13g2_hv_and2_2
*I *395:A I *D sg13g2_hv_buf_1
*I *323:A I *D sg13g2_hv_xor2_1
*I *328:B I *D sg13g2_hv_nand4_1
*I *326:A1 I *D sg13g2_hv_a21oi_1
*I *374:Q O *D sg13g2_hv_sdfbbp_1
*CAP
1 *330:A 0
2 *395:A 0.000487223
3 *323:A 0.000739959
4 *328:B 5.1126e-05
5 *326:A1 0.000135005
6 *374:Q 0.000799723
7 *88:20 0.000241425
8 *88:18 0.000961536
9 *88:12 0.00219751
10 *88:8 0.00234372
11 *326:A1 *327:A 0.000475652
12 *395:A *89:14 0
13 *88:18 *89:18 0.000212958
14 *88:20 *327:A 5.30319e-05
15 *88:20 *89:18 0.00023464
16 counter_value_o[3] *395:A 0
17 *323:B *323:A 0
18 *325:A *323:A 4.77425e-05
19 *344:D *88:8 0
20 *344:SCD *88:8 0
21 *379:D *395:A 0
22 *379:SCD *395:A 0.000469379
23 *386:A *88:12 0
24 *21:8 *88:12 0.000235556
25 *21:8 *88:18 0.000234726
26 *28:21 *326:A1 0.000315105
27 *28:32 *326:A1 0.000159839
28 *28:32 *88:18 0.000288174
29 *28:32 *88:20 0.000287672
30 *28:47 *88:12 0
31 *45:11 *88:12 0
32 *46:51 *88:12 0
33 *46:51 *88:18 0
34 *51:34 *323:A 0
35 *51:36 *323:A 0
36 *76:10 *88:8 0.000177273
*RES
1 *374:Q *88:8 29.1361 
2 *88:8 *88:12 35.4294 
3 *88:12 *88:18 2.9973 
4 *88:18 *88:20 1.339 
5 *88:20 *326:A1 42.6316 
6 *88:20 *328:B 40.488 
7 *88:18 *323:A 46.3999 
8 *88:12 *395:A 45.6444 
9 *88:8 *330:A 20 
*END

*D_NET *89 0.00664726
*CONN
*I *330:B I *D sg13g2_hv_and2_2
*I *396:A I *D sg13g2_hv_buf_1
*I *325:B I *D sg13g2_hv_nand2_1
*I *327:A I *D sg13g2_hv_inv_1
*I *379:Q O *D sg13g2_hv_sdfbbp_1
*CAP
1 *330:B 0.000200859
2 *396:A 0.000304734
3 *325:B 0.000144141
4 *327:A 0.000318169
5 *379:Q 0
6 *89:18 0.000589689
7 *89:14 0.00156153
8 *89:8 0.0018675
9 *89:6 0.00032948
10 counter_value_o[4] *396:A 0
11 *326:A1 *327:A 0.000475652
12 *326:B1 *325:B 0
13 *326:B1 *327:A 0
14 *329:B *89:14 0.000112826
15 *379:SET_B *396:A 0
16 *395:A *89:14 0
17 *28:10 *327:A 0
18 *28:21 *327:A 0
19 *46:51 *327:A 0
20 *46:51 *89:18 0
21 *51:36 *325:B 0.000242055
22 *51:51 *330:B 0
23 *51:51 *89:8 0
24 *51:51 *89:14 0
25 *88:18 *89:18 0.000212958
26 *88:20 *327:A 5.30319e-05
27 *88:20 *89:18 0.00023464
*RES
1 *379:Q *89:6 40 
2 *89:6 *89:8 1.5862 
3 *89:8 *89:14 36.5212 
4 *89:14 *89:18 22.0806 
5 *89:18 *327:A 44.0685 
6 *89:18 *325:B 41.6171 
7 *89:8 *396:A 43.5638 
8 *89:6 *330:B 42.3072 
*END

*D_NET *90 0.00509947
*CONN
*I *342:A I *D sg13g2_hv_nand4_1
*I *397:A I *D sg13g2_hv_buf_1
*I *333:A I *D sg13g2_hv_inv_1
*I *331:B I *D sg13g2_hv_nand2_1
*I *338:A I *D sg13g2_hv_nand3_1
*I *344:Q O *D sg13g2_hv_sdfbbp_1
*CAP
1 *342:A 0
2 *397:A 0.00041184
3 *333:A 0
4 *331:B 0.000122053
5 *338:A 0
6 *344:Q 0.000411558
7 *90:40 0.000445296
8 *90:25 0.000453087
9 *90:21 0.00106161
10 *90:8 0.00117559
11 *90:21 *91:23 0
12 *90:25 *342:B 0.000128662
13 counter_value_o[5] *397:A 0
14 *338:B *90:21 0
15 *338:C *397:A 0
16 *338:C *90:40 0
17 *340:B_N *90:21 0
18 *344:RESET_B *90:8 0
19 *388:A *331:B 0
20 *388:A *90:25 0
21 *28:73 *331:B 0
22 *28:73 *90:25 0
23 *34:30 *397:A 0
24 *37:8 *331:B 0.000128663
25 *47:6 *90:21 0.00032431
26 *47:12 *90:8 0
27 *47:12 *90:21 0.000436791
28 *81:8 *90:8 0
*RES
1 *344:Q *90:8 24.2848 
2 *90:8 *338:A 20 
3 *90:8 *90:21 8.0752 
4 *90:21 *90:25 23.5638 
5 *90:25 *331:B 41.6274 
6 *90:25 *90:40 20.5356 
7 *90:40 *333:A 20 
8 *90:40 *397:A 24.6453 
9 *90:21 *342:A 20 
*END

*D_NET *91 0.00978904
*CONN
*I *336:A I *D sg13g2_hv_nor2b_1
*I *398:A I *D sg13g2_hv_buf_1
*I *342:B I *D sg13g2_hv_nand4_1
*I *337:B I *D sg13g2_hv_and2_1
*I *349:Q O *D sg13g2_hv_sdfbbp_1
*CAP
1 *336:A 0.000304951
2 *398:A 0
3 *342:B 0.000281061
4 *337:B 0
5 *349:Q 0
6 *91:41 0.00135722
7 *91:23 0.00256668
8 *91:14 0.00133726
9 *91:8 0.0021262
10 *91:6 0.00141239
11 counter_value_o[6] *91:41 0
12 *336:B_N *336:A 0
13 *336:B_N *91:14 0
14 *336:B_N *91:23 0
15 *339:A0 *336:A 0.000274627
16 *340:A *91:41 0
17 *340:B_N *342:B 0
18 *340:B_N *91:23 0
19 *340:B_N *91:41 0
20 *341:A *91:41 0
21 *354:SCD *91:41 0
22 *388:A *342:B 0
23 *15:8 *91:8 0
24 *40:8 *91:8 0
25 *40:8 *91:14 0
26 *43:10 *91:41 0
27 *44:10 *342:B 0
28 *44:10 *91:41 0
29 *47:6 *91:23 0
30 *47:12 *91:23 0
31 *50:8 *91:41 0
32 *52:10 *91:41 0
33 *52:25 *91:23 0
34 *52:31 *91:14 0
35 *86:12 *91:8 0
36 *90:21 *91:23 0
37 *90:25 *342:B 0.000128662
*RES
1 *349:Q *91:6 40 
2 *91:6 *91:8 18.1486 
3 *91:8 *91:14 24.6865 
4 *91:14 *337:B 20 
5 *91:14 *91:23 29.6202 
6 *91:23 *342:B 42.7438 
7 *91:23 *91:41 32.3806 
8 *91:41 *398:A 20 
9 *91:8 *336:A 43.6977 
*END
